4257

He -3.000000000   -39.000000000   3.000000000
He -3.000000000   -39.000000000   9.000000000
He -3.000000000   -39.000000000   15.000000000
He -3.000000000   -39.000000000   21.000000000
He -3.000000000   -39.000000000   27.000000000
He -3.000000000   -39.000000000   33.000000000
He -3.000000000   -39.000000000   39.000000000
He -3.000000000   -39.000000000   45.000000000
He -3.000000000   -39.000000000   51.000000000
He -3.000000000   -39.000000000   57.000000000
He -3.000000000   -39.000000000   63.000000000
He -3.000000000   -39.000000000   69.000000000
He -3.000000000   -39.000000000   75.000000000
He -3.000000000   -33.000000000   3.000000000
He -3.000000000   -33.000000000   9.000000000
He -3.000000000   -33.000000000   15.000000000
He -3.000000000   -33.000000000   21.000000000
He -3.000000000   -33.000000000   27.000000000
He -3.000000000   -33.000000000   33.000000000
He -3.000000000   -33.000000000   39.000000000
He -3.000000000   -33.000000000   45.000000000
He -3.000000000   -33.000000000   51.000000000
He -3.000000000   -33.000000000   57.000000000
He -3.000000000   -33.000000000   63.000000000
He -3.000000000   -33.000000000   69.000000000
He -3.000000000   -33.000000000   75.000000000
He -3.000000000   -27.000000000   3.000000000
He -3.000000000   -27.000000000   9.000000000
He -3.000000000   -27.000000000   15.000000000
He -3.000000000   -27.000000000   21.000000000
He -3.000000000   -27.000000000   27.000000000
He -3.000000000   -27.000000000   33.000000000
He -3.000000000   -27.000000000   39.000000000
He -3.000000000   -27.000000000   45.000000000
He -3.000000000   -27.000000000   51.000000000
He -3.000000000   -27.000000000   57.000000000
He -3.000000000   -27.000000000   63.000000000
He -3.000000000   -27.000000000   69.000000000
He -3.000000000   -27.000000000   75.000000000
He -3.000000000   -21.000000000   3.000000000
He -3.000000000   -21.000000000   9.000000000
He -3.000000000   -21.000000000   15.000000000
He -3.000000000   -21.000000000   21.000000000
He -3.000000000   -21.000000000   27.000000000
He -3.000000000   -21.000000000   33.000000000
He -3.000000000   -21.000000000   39.000000000
He -3.000000000   -21.000000000   45.000000000
He -3.000000000   -21.000000000   51.000000000
He -3.000000000   -21.000000000   57.000000000
He -3.000000000   -21.000000000   63.000000000
He -3.000000000   -21.000000000   69.000000000
He -3.000000000   -21.000000000   75.000000000
He -3.000000000   -15.000000000   3.000000000
He -3.000000000   -15.000000000   9.000000000
He -3.000000000   -15.000000000   15.000000000
He -3.000000000   -15.000000000   21.000000000
He -3.000000000   -15.000000000   27.000000000
He -3.000000000   -15.000000000   33.000000000
He -3.000000000   -15.000000000   39.000000000
He -3.000000000   -15.000000000   45.000000000
He -3.000000000   -15.000000000   51.000000000
He -3.000000000   -15.000000000   57.000000000
He -3.000000000   -15.000000000   63.000000000
He -3.000000000   -15.000000000   69.000000000
He -3.000000000   -15.000000000   75.000000000
He -3.000000000   -9.000000000   3.000000000
He -3.000000000   -9.000000000   9.000000000
He -3.000000000   -9.000000000   15.000000000
He -3.000000000   -9.000000000   21.000000000
He -3.000000000   -9.000000000   27.000000000
He -3.000000000   -9.000000000   33.000000000
He -3.000000000   -9.000000000   39.000000000
He -3.000000000   -9.000000000   45.000000000
He -3.000000000   -9.000000000   51.000000000
He -3.000000000   -9.000000000   57.000000000
He -3.000000000   -9.000000000   63.000000000
He -3.000000000   -9.000000000   69.000000000
He -3.000000000   -9.000000000   75.000000000
He -3.000000000   -3.000000000   3.000000000
He -3.000000000   -3.000000000   9.000000000
He -3.000000000   -3.000000000   15.000000000
He -3.000000000   -3.000000000   21.000000000
He -3.000000000   -3.000000000   27.000000000
He -3.000000000   -3.000000000   33.000000000
He -3.000000000   -3.000000000   39.000000000
He -3.000000000   -3.000000000   45.000000000
He -3.000000000   -3.000000000   51.000000000
He -3.000000000   -3.000000000   57.000000000
He -3.000000000   -3.000000000   63.000000000
He -3.000000000   -3.000000000   69.000000000
He -3.000000000   -3.000000000   75.000000000
He -3.000000000   3.000000000   3.000000000
He -3.000000000   3.000000000   9.000000000
He -3.000000000   3.000000000   15.000000000
He -3.000000000   3.000000000   21.000000000
He -3.000000000   3.000000000   27.000000000
He -3.000000000   3.000000000   33.000000000
He -3.000000000   3.000000000   39.000000000
He -3.000000000   3.000000000   45.000000000
He -3.000000000   3.000000000   51.000000000
He -3.000000000   3.000000000   57.000000000
He -3.000000000   3.000000000   63.000000000
He -3.000000000   3.000000000   69.000000000
He -3.000000000   3.000000000   75.000000000
He -3.000000000   9.000000000   3.000000000
He -3.000000000   9.000000000   9.000000000
He -3.000000000   9.000000000   15.000000000
He -3.000000000   9.000000000   21.000000000
He -3.000000000   9.000000000   27.000000000
He -3.000000000   9.000000000   33.000000000
He -3.000000000   9.000000000   39.000000000
He -3.000000000   9.000000000   45.000000000
He -3.000000000   9.000000000   51.000000000
He -3.000000000   9.000000000   57.000000000
He -3.000000000   9.000000000   63.000000000
He -3.000000000   9.000000000   69.000000000
He -3.000000000   9.000000000   75.000000000
He -3.000000000   15.000000000   3.000000000
He -3.000000000   15.000000000   9.000000000
He -3.000000000   15.000000000   15.000000000
He -3.000000000   15.000000000   21.000000000
He -3.000000000   15.000000000   27.000000000
He -3.000000000   15.000000000   33.000000000
He -3.000000000   15.000000000   39.000000000
He -3.000000000   15.000000000   45.000000000
He -3.000000000   15.000000000   51.000000000
He -3.000000000   15.000000000   57.000000000
He -3.000000000   15.000000000   63.000000000
He -3.000000000   15.000000000   69.000000000
He -3.000000000   15.000000000   75.000000000
He 3.000000000   -39.000000000   3.000000000
He 3.000000000   -39.000000000   9.000000000
He 3.000000000   -39.000000000   15.000000000
He 3.000000000   -39.000000000   21.000000000
He 3.000000000   -39.000000000   27.000000000
He 3.000000000   -39.000000000   33.000000000
He 3.000000000   -39.000000000   39.000000000
He 3.000000000   -39.000000000   45.000000000
He 3.000000000   -39.000000000   51.000000000
He 3.000000000   -39.000000000   57.000000000
He 3.000000000   -39.000000000   63.000000000
He 3.000000000   -39.000000000   69.000000000
He 3.000000000   -39.000000000   75.000000000
H 0.000000000   -36.000000000   0.000000000
He 3.000000000   -33.000000000   3.000000000
H 0.000000000   -36.000000000   6.000000000
He 3.000000000   -33.000000000   9.000000000
H 0.000000000   -36.000000000   12.000000000
He 3.000000000   -33.000000000   15.000000000
H 0.000000000   -36.000000000   18.000000000
He 3.000000000   -33.000000000   21.000000000
H 0.000000000   -36.000000000   24.000000000
He 3.000000000   -33.000000000   27.000000000
H 0.000000000   -36.000000000   30.000000000
He 3.000000000   -33.000000000   33.000000000
H 0.000000000   -36.000000000   36.000000000
He 3.000000000   -33.000000000   39.000000000
H 0.000000000   -36.000000000   42.000000000
He 3.000000000   -33.000000000   45.000000000
H 0.000000000   -36.000000000   48.000000000
He 3.000000000   -33.000000000   51.000000000
H 0.000000000   -36.000000000   54.000000000
He 3.000000000   -33.000000000   57.000000000
H 0.000000000   -36.000000000   60.000000000
He 3.000000000   -33.000000000   63.000000000
H 0.000000000   -36.000000000   66.000000000
He 3.000000000   -33.000000000   69.000000000
H 0.000000000   -36.000000000   72.000000000
He 3.000000000   -33.000000000   75.000000000
H 0.000000000   -30.000000000   0.000000000
He 3.000000000   -27.000000000   3.000000000
H 0.000000000   -30.000000000   6.000000000
He 3.000000000   -27.000000000   9.000000000
H 0.000000000   -30.000000000   12.000000000
He 3.000000000   -27.000000000   15.000000000
H 0.000000000   -30.000000000   18.000000000
He 3.000000000   -27.000000000   21.000000000
H 0.000000000   -30.000000000   24.000000000
He 3.000000000   -27.000000000   27.000000000
H 0.000000000   -30.000000000   30.000000000
He 3.000000000   -27.000000000   33.000000000
H 0.000000000   -30.000000000   36.000000000
He 3.000000000   -27.000000000   39.000000000
H 0.000000000   -30.000000000   42.000000000
He 3.000000000   -27.000000000   45.000000000
H 0.000000000   -30.000000000   48.000000000
He 3.000000000   -27.000000000   51.000000000
H 0.000000000   -30.000000000   54.000000000
He 3.000000000   -27.000000000   57.000000000
H 0.000000000   -30.000000000   60.000000000
He 3.000000000   -27.000000000   63.000000000
H 0.000000000   -30.000000000   66.000000000
He 3.000000000   -27.000000000   69.000000000
H 0.000000000   -30.000000000   72.000000000
He 3.000000000   -27.000000000   75.000000000
H 0.000000000   -24.000000000   0.000000000
He 3.000000000   -21.000000000   3.000000000
H 0.000000000   -24.000000000   6.000000000
He 3.000000000   -21.000000000   9.000000000
H 0.000000000   -24.000000000   12.000000000
He 3.000000000   -21.000000000   15.000000000
H 0.000000000   -24.000000000   18.000000000
He 3.000000000   -21.000000000   21.000000000
H 0.000000000   -24.000000000   24.000000000
He 3.000000000   -21.000000000   27.000000000
H 0.000000000   -24.000000000   30.000000000
He 3.000000000   -21.000000000   33.000000000
H 0.000000000   -24.000000000   36.000000000
He 3.000000000   -21.000000000   39.000000000
H 0.000000000   -24.000000000   42.000000000
He 3.000000000   -21.000000000   45.000000000
H 0.000000000   -24.000000000   48.000000000
He 3.000000000   -21.000000000   51.000000000
H 0.000000000   -24.000000000   54.000000000
He 3.000000000   -21.000000000   57.000000000
H 0.000000000   -24.000000000   60.000000000
He 3.000000000   -21.000000000   63.000000000
H 0.000000000   -24.000000000   66.000000000
He 3.000000000   -21.000000000   69.000000000
H 0.000000000   -24.000000000   72.000000000
He 3.000000000   -21.000000000   75.000000000
H 0.000000000   -18.000000000   0.000000000
He 3.000000000   -15.000000000   3.000000000
H 0.000000000   -18.000000000   6.000000000
He 3.000000000   -15.000000000   9.000000000
H 0.000000000   -18.000000000   12.000000000
He 3.000000000   -15.000000000   15.000000000
H 0.000000000   -18.000000000   18.000000000
He 3.000000000   -15.000000000   21.000000000
H 0.000000000   -18.000000000   24.000000000
He 3.000000000   -15.000000000   27.000000000
H 0.000000000   -18.000000000   30.000000000
He 3.000000000   -15.000000000   33.000000000
H 0.000000000   -18.000000000   36.000000000
He 3.000000000   -15.000000000   39.000000000
H 0.000000000   -18.000000000   42.000000000
He 3.000000000   -15.000000000   45.000000000
H 0.000000000   -18.000000000   48.000000000
He 3.000000000   -15.000000000   51.000000000
H 0.000000000   -18.000000000   54.000000000
He 3.000000000   -15.000000000   57.000000000
H 0.000000000   -18.000000000   60.000000000
He 3.000000000   -15.000000000   63.000000000
H 0.000000000   -18.000000000   66.000000000
He 3.000000000   -15.000000000   69.000000000
H 0.000000000   -18.000000000   72.000000000
He 3.000000000   -15.000000000   75.000000000
H 0.000000000   -12.000000000   0.000000000
He 3.000000000   -9.000000000   3.000000000
H 0.000000000   -12.000000000   6.000000000
He 3.000000000   -9.000000000   9.000000000
H 0.000000000   -12.000000000   12.000000000
He 3.000000000   -9.000000000   15.000000000
H 0.000000000   -12.000000000   18.000000000
He 3.000000000   -9.000000000   21.000000000
H 0.000000000   -12.000000000   24.000000000
He 3.000000000   -9.000000000   27.000000000
H 0.000000000   -12.000000000   30.000000000
He 3.000000000   -9.000000000   33.000000000
H 0.000000000   -12.000000000   36.000000000
He 3.000000000   -9.000000000   39.000000000
H 0.000000000   -12.000000000   42.000000000
He 3.000000000   -9.000000000   45.000000000
H 0.000000000   -12.000000000   48.000000000
He 3.000000000   -9.000000000   51.000000000
H 0.000000000   -12.000000000   54.000000000
He 3.000000000   -9.000000000   57.000000000
H 0.000000000   -12.000000000   60.000000000
He 3.000000000   -9.000000000   63.000000000
H 0.000000000   -12.000000000   66.000000000
He 3.000000000   -9.000000000   69.000000000
H 0.000000000   -12.000000000   72.000000000
He 3.000000000   -9.000000000   75.000000000
H 0.000000000   -6.000000000   0.000000000
He 3.000000000   -3.000000000   3.000000000
H 0.000000000   -6.000000000   6.000000000
He 3.000000000   -3.000000000   9.000000000
H 0.000000000   -6.000000000   12.000000000
He 3.000000000   -3.000000000   15.000000000
H 0.000000000   -6.000000000   18.000000000
He 3.000000000   -3.000000000   21.000000000
H 0.000000000   -6.000000000   24.000000000
He 3.000000000   -3.000000000   27.000000000
H 0.000000000   -6.000000000   30.000000000
He 3.000000000   -3.000000000   33.000000000
H 0.000000000   -6.000000000   36.000000000
He 3.000000000   -3.000000000   39.000000000
H 0.000000000   -6.000000000   42.000000000
He 3.000000000   -3.000000000   45.000000000
H 0.000000000   -6.000000000   48.000000000
He 3.000000000   -3.000000000   51.000000000
H 0.000000000   -6.000000000   54.000000000
He 3.000000000   -3.000000000   57.000000000
H 0.000000000   -6.000000000   60.000000000
He 3.000000000   -3.000000000   63.000000000
H 0.000000000   -6.000000000   66.000000000
He 3.000000000   -3.000000000   69.000000000
H 0.000000000   -6.000000000   72.000000000
He 3.000000000   -3.000000000   75.000000000
H 0.000000000   0.000000000   0.000000000
He 3.000000000   3.000000000   3.000000000
H 0.000000000   0.000000000   6.000000000
He 3.000000000   3.000000000   9.000000000
H 0.000000000   0.000000000   12.000000000
He 3.000000000   3.000000000   15.000000000
H 0.000000000   0.000000000   18.000000000
He 3.000000000   3.000000000   21.000000000
H 0.000000000   0.000000000   24.000000000
He 3.000000000   3.000000000   27.000000000
H 0.000000000   0.000000000   30.000000000
He 3.000000000   3.000000000   33.000000000
H 0.000000000   0.000000000   36.000000000
He 3.000000000   3.000000000   39.000000000
H 0.000000000   0.000000000   42.000000000
He 3.000000000   3.000000000   45.000000000
H 0.000000000   0.000000000   48.000000000
He 3.000000000   3.000000000   51.000000000
H 0.000000000   0.000000000   54.000000000
He 3.000000000   3.000000000   57.000000000
H 0.000000000   0.000000000   60.000000000
He 3.000000000   3.000000000   63.000000000
H 0.000000000   0.000000000   66.000000000
He 3.000000000   3.000000000   69.000000000
H 0.000000000   0.000000000   72.000000000
He 3.000000000   3.000000000   75.000000000
H 0.000000000   6.000000000   0.000000000
He 3.000000000   9.000000000   3.000000000
H 0.000000000   6.000000000   6.000000000
He 3.000000000   9.000000000   9.000000000
H 0.000000000   6.000000000   12.000000000
He 3.000000000   9.000000000   15.000000000
H 0.000000000   6.000000000   18.000000000
He 3.000000000   9.000000000   21.000000000
H 0.000000000   6.000000000   24.000000000
He 3.000000000   9.000000000   27.000000000
H 0.000000000   6.000000000   30.000000000
He 3.000000000   9.000000000   33.000000000
H 0.000000000   6.000000000   36.000000000
He 3.000000000   9.000000000   39.000000000
H 0.000000000   6.000000000   42.000000000
He 3.000000000   9.000000000   45.000000000
H 0.000000000   6.000000000   48.000000000
He 3.000000000   9.000000000   51.000000000
H 0.000000000   6.000000000   54.000000000
He 3.000000000   9.000000000   57.000000000
H 0.000000000   6.000000000   60.000000000
He 3.000000000   9.000000000   63.000000000
H 0.000000000   6.000000000   66.000000000
He 3.000000000   9.000000000   69.000000000
H 0.000000000   6.000000000   72.000000000
He 3.000000000   9.000000000   75.000000000
H 0.000000000   12.000000000   0.000000000
He 3.000000000   15.000000000   3.000000000
H 0.000000000   12.000000000   6.000000000
He 3.000000000   15.000000000   9.000000000
H 0.000000000   12.000000000   12.000000000
He 3.000000000   15.000000000   15.000000000
H 0.000000000   12.000000000   18.000000000
He 3.000000000   15.000000000   21.000000000
H 0.000000000   12.000000000   24.000000000
He 3.000000000   15.000000000   27.000000000
H 0.000000000   12.000000000   30.000000000
He 3.000000000   15.000000000   33.000000000
H 0.000000000   12.000000000   36.000000000
He 3.000000000   15.000000000   39.000000000
H 0.000000000   12.000000000   42.000000000
He 3.000000000   15.000000000   45.000000000
H 0.000000000   12.000000000   48.000000000
He 3.000000000   15.000000000   51.000000000
H 0.000000000   12.000000000   54.000000000
He 3.000000000   15.000000000   57.000000000
H 0.000000000   12.000000000   60.000000000
He 3.000000000   15.000000000   63.000000000
H 0.000000000   12.000000000   66.000000000
He 3.000000000   15.000000000   69.000000000
H 0.000000000   12.000000000   72.000000000
He 3.000000000   15.000000000   75.000000000
He 9.000000000   -39.000000000   3.000000000
He 9.000000000   -39.000000000   9.000000000
He 9.000000000   -39.000000000   15.000000000
He 9.000000000   -39.000000000   21.000000000
He 9.000000000   -39.000000000   27.000000000
He 9.000000000   -39.000000000   33.000000000
He 9.000000000   -39.000000000   39.000000000
He 9.000000000   -39.000000000   45.000000000
He 9.000000000   -39.000000000   51.000000000
He 9.000000000   -39.000000000   57.000000000
He 9.000000000   -39.000000000   63.000000000
He 9.000000000   -39.000000000   69.000000000
He 9.000000000   -39.000000000   75.000000000
H 6.000000000   -36.000000000   0.000000000
He 9.000000000   -33.000000000   3.000000000
H 6.000000000   -36.000000000   6.000000000
He 9.000000000   -33.000000000   9.000000000
H 6.000000000   -36.000000000   12.000000000
He 9.000000000   -33.000000000   15.000000000
H 6.000000000   -36.000000000   18.000000000
He 9.000000000   -33.000000000   21.000000000
H 6.000000000   -36.000000000   24.000000000
He 9.000000000   -33.000000000   27.000000000
H 6.000000000   -36.000000000   30.000000000
He 9.000000000   -33.000000000   33.000000000
H 6.000000000   -36.000000000   36.000000000
He 9.000000000   -33.000000000   39.000000000
H 6.000000000   -36.000000000   42.000000000
He 9.000000000   -33.000000000   45.000000000
H 6.000000000   -36.000000000   48.000000000
He 9.000000000   -33.000000000   51.000000000
H 6.000000000   -36.000000000   54.000000000
He 9.000000000   -33.000000000   57.000000000
H 6.000000000   -36.000000000   60.000000000
He 9.000000000   -33.000000000   63.000000000
H 6.000000000   -36.000000000   66.000000000
He 9.000000000   -33.000000000   69.000000000
H 6.000000000   -36.000000000   72.000000000
He 9.000000000   -33.000000000   75.000000000
H 6.000000000   -30.000000000   0.000000000
He 9.000000000   -27.000000000   3.000000000
H 6.000000000   -30.000000000   6.000000000
He 9.000000000   -27.000000000   9.000000000
H 6.000000000   -30.000000000   12.000000000
He 9.000000000   -27.000000000   15.000000000
H 6.000000000   -30.000000000   18.000000000
He 9.000000000   -27.000000000   21.000000000
H 6.000000000   -30.000000000   24.000000000
He 9.000000000   -27.000000000   27.000000000
H 6.000000000   -30.000000000   30.000000000
He 9.000000000   -27.000000000   33.000000000
H 6.000000000   -30.000000000   36.000000000
He 9.000000000   -27.000000000   39.000000000
H 6.000000000   -30.000000000   42.000000000
He 9.000000000   -27.000000000   45.000000000
H 6.000000000   -30.000000000   48.000000000
He 9.000000000   -27.000000000   51.000000000
H 6.000000000   -30.000000000   54.000000000
He 9.000000000   -27.000000000   57.000000000
H 6.000000000   -30.000000000   60.000000000
He 9.000000000   -27.000000000   63.000000000
H 6.000000000   -30.000000000   66.000000000
He 9.000000000   -27.000000000   69.000000000
H 6.000000000   -30.000000000   72.000000000
He 9.000000000   -27.000000000   75.000000000
H 6.000000000   -24.000000000   0.000000000
He 9.000000000   -21.000000000   3.000000000
H 6.000000000   -24.000000000   6.000000000
He 9.000000000   -21.000000000   9.000000000
H 6.000000000   -24.000000000   12.000000000
He 9.000000000   -21.000000000   15.000000000
H 6.000000000   -24.000000000   18.000000000
He 9.000000000   -21.000000000   21.000000000
H 6.000000000   -24.000000000   24.000000000
He 9.000000000   -21.000000000   27.000000000
H 6.000000000   -24.000000000   30.000000000
He 9.000000000   -21.000000000   33.000000000
H 6.000000000   -24.000000000   36.000000000
He 9.000000000   -21.000000000   39.000000000
H 6.000000000   -24.000000000   42.000000000
He 9.000000000   -21.000000000   45.000000000
H 6.000000000   -24.000000000   48.000000000
He 9.000000000   -21.000000000   51.000000000
H 6.000000000   -24.000000000   54.000000000
He 9.000000000   -21.000000000   57.000000000
H 6.000000000   -24.000000000   60.000000000
He 9.000000000   -21.000000000   63.000000000
H 6.000000000   -24.000000000   66.000000000
He 9.000000000   -21.000000000   69.000000000
H 6.000000000   -24.000000000   72.000000000
He 9.000000000   -21.000000000   75.000000000
H 6.000000000   -18.000000000   0.000000000
He 9.000000000   -15.000000000   3.000000000
H 6.000000000   -18.000000000   6.000000000
He 9.000000000   -15.000000000   9.000000000
H 6.000000000   -18.000000000   12.000000000
He 9.000000000   -15.000000000   15.000000000
H 6.000000000   -18.000000000   18.000000000
He 9.000000000   -15.000000000   21.000000000
H 6.000000000   -18.000000000   24.000000000
He 9.000000000   -15.000000000   27.000000000
H 6.000000000   -18.000000000   30.000000000
He 9.000000000   -15.000000000   33.000000000
H 6.000000000   -18.000000000   36.000000000
He 9.000000000   -15.000000000   39.000000000
H 6.000000000   -18.000000000   42.000000000
He 9.000000000   -15.000000000   45.000000000
H 6.000000000   -18.000000000   48.000000000
He 9.000000000   -15.000000000   51.000000000
H 6.000000000   -18.000000000   54.000000000
He 9.000000000   -15.000000000   57.000000000
H 6.000000000   -18.000000000   60.000000000
He 9.000000000   -15.000000000   63.000000000
H 6.000000000   -18.000000000   66.000000000
He 9.000000000   -15.000000000   69.000000000
H 6.000000000   -18.000000000   72.000000000
He 9.000000000   -15.000000000   75.000000000
H 6.000000000   -12.000000000   0.000000000
He 9.000000000   -9.000000000   3.000000000
H 6.000000000   -12.000000000   6.000000000
He 9.000000000   -9.000000000   9.000000000
H 6.000000000   -12.000000000   12.000000000
He 9.000000000   -9.000000000   15.000000000
H 6.000000000   -12.000000000   18.000000000
He 9.000000000   -9.000000000   21.000000000
H 6.000000000   -12.000000000   24.000000000
He 9.000000000   -9.000000000   27.000000000
H 6.000000000   -12.000000000   30.000000000
He 9.000000000   -9.000000000   33.000000000
H 6.000000000   -12.000000000   36.000000000
He 9.000000000   -9.000000000   39.000000000
H 6.000000000   -12.000000000   42.000000000
He 9.000000000   -9.000000000   45.000000000
H 6.000000000   -12.000000000   48.000000000
He 9.000000000   -9.000000000   51.000000000
H 6.000000000   -12.000000000   54.000000000
He 9.000000000   -9.000000000   57.000000000
H 6.000000000   -12.000000000   60.000000000
He 9.000000000   -9.000000000   63.000000000
H 6.000000000   -12.000000000   66.000000000
He 9.000000000   -9.000000000   69.000000000
H 6.000000000   -12.000000000   72.000000000
He 9.000000000   -9.000000000   75.000000000
H 6.000000000   -6.000000000   0.000000000
He 9.000000000   -3.000000000   3.000000000
H 6.000000000   -6.000000000   6.000000000
He 9.000000000   -3.000000000   9.000000000
H 6.000000000   -6.000000000   12.000000000
He 9.000000000   -3.000000000   15.000000000
H 6.000000000   -6.000000000   18.000000000
He 9.000000000   -3.000000000   21.000000000
H 6.000000000   -6.000000000   24.000000000
He 9.000000000   -3.000000000   27.000000000
H 6.000000000   -6.000000000   30.000000000
He 9.000000000   -3.000000000   33.000000000
H 6.000000000   -6.000000000   36.000000000
He 9.000000000   -3.000000000   39.000000000
H 6.000000000   -6.000000000   42.000000000
He 9.000000000   -3.000000000   45.000000000
H 6.000000000   -6.000000000   48.000000000
He 9.000000000   -3.000000000   51.000000000
H 6.000000000   -6.000000000   54.000000000
He 9.000000000   -3.000000000   57.000000000
H 6.000000000   -6.000000000   60.000000000
He 9.000000000   -3.000000000   63.000000000
H 6.000000000   -6.000000000   66.000000000
He 9.000000000   -3.000000000   69.000000000
H 6.000000000   -6.000000000   72.000000000
He 9.000000000   -3.000000000   75.000000000
H 6.000000000   0.000000000   0.000000000
He 9.000000000   3.000000000   3.000000000
H 6.000000000   0.000000000   6.000000000
He 9.000000000   3.000000000   9.000000000
H 6.000000000   0.000000000   12.000000000
He 9.000000000   3.000000000   15.000000000
H 6.000000000   0.000000000   18.000000000
He 9.000000000   3.000000000   21.000000000
H 6.000000000   0.000000000   24.000000000
He 9.000000000   3.000000000   27.000000000
H 6.000000000   0.000000000   30.000000000
He 9.000000000   3.000000000   33.000000000
H 6.000000000   0.000000000   36.000000000
He 9.000000000   3.000000000   39.000000000
H 6.000000000   0.000000000   42.000000000
He 9.000000000   3.000000000   45.000000000
H 6.000000000   0.000000000   48.000000000
He 9.000000000   3.000000000   51.000000000
H 6.000000000   0.000000000   54.000000000
He 9.000000000   3.000000000   57.000000000
H 6.000000000   0.000000000   60.000000000
He 9.000000000   3.000000000   63.000000000
H 6.000000000   0.000000000   66.000000000
He 9.000000000   3.000000000   69.000000000
H 6.000000000   0.000000000   72.000000000
He 9.000000000   3.000000000   75.000000000
H 6.000000000   6.000000000   0.000000000
He 9.000000000   9.000000000   3.000000000
H 6.000000000   6.000000000   6.000000000
He 9.000000000   9.000000000   9.000000000
H 6.000000000   6.000000000   12.000000000
He 9.000000000   9.000000000   15.000000000
H 6.000000000   6.000000000   18.000000000
He 9.000000000   9.000000000   21.000000000
H 6.000000000   6.000000000   24.000000000
He 9.000000000   9.000000000   27.000000000
H 6.000000000   6.000000000   30.000000000
He 9.000000000   9.000000000   33.000000000
H 6.000000000   6.000000000   36.000000000
He 9.000000000   9.000000000   39.000000000
H 6.000000000   6.000000000   42.000000000
He 9.000000000   9.000000000   45.000000000
H 6.000000000   6.000000000   48.000000000
He 9.000000000   9.000000000   51.000000000
H 6.000000000   6.000000000   54.000000000
He 9.000000000   9.000000000   57.000000000
H 6.000000000   6.000000000   60.000000000
He 9.000000000   9.000000000   63.000000000
H 6.000000000   6.000000000   66.000000000
He 9.000000000   9.000000000   69.000000000
H 6.000000000   6.000000000   72.000000000
He 9.000000000   9.000000000   75.000000000
H 6.000000000   12.000000000   0.000000000
He 9.000000000   15.000000000   3.000000000
H 6.000000000   12.000000000   6.000000000
He 9.000000000   15.000000000   9.000000000
H 6.000000000   12.000000000   12.000000000
He 9.000000000   15.000000000   15.000000000
H 6.000000000   12.000000000   18.000000000
He 9.000000000   15.000000000   21.000000000
H 6.000000000   12.000000000   24.000000000
He 9.000000000   15.000000000   27.000000000
H 6.000000000   12.000000000   30.000000000
He 9.000000000   15.000000000   33.000000000
H 6.000000000   12.000000000   36.000000000
He 9.000000000   15.000000000   39.000000000
H 6.000000000   12.000000000   42.000000000
He 9.000000000   15.000000000   45.000000000
H 6.000000000   12.000000000   48.000000000
He 9.000000000   15.000000000   51.000000000
H 6.000000000   12.000000000   54.000000000
He 9.000000000   15.000000000   57.000000000
H 6.000000000   12.000000000   60.000000000
He 9.000000000   15.000000000   63.000000000
H 6.000000000   12.000000000   66.000000000
He 9.000000000   15.000000000   69.000000000
H 6.000000000   12.000000000   72.000000000
He 9.000000000   15.000000000   75.000000000
He 15.000000000   -39.000000000   3.000000000
He 15.000000000   -39.000000000   9.000000000
He 15.000000000   -39.000000000   15.000000000
He 15.000000000   -39.000000000   21.000000000
He 15.000000000   -39.000000000   27.000000000
He 15.000000000   -39.000000000   33.000000000
He 15.000000000   -39.000000000   39.000000000
He 15.000000000   -39.000000000   45.000000000
He 15.000000000   -39.000000000   51.000000000
He 15.000000000   -39.000000000   57.000000000
He 15.000000000   -39.000000000   63.000000000
He 15.000000000   -39.000000000   69.000000000
He 15.000000000   -39.000000000   75.000000000
H 12.000000000   -36.000000000   0.000000000
He 15.000000000   -33.000000000   3.000000000
H 12.000000000   -36.000000000   6.000000000
He 15.000000000   -33.000000000   9.000000000
H 12.000000000   -36.000000000   12.000000000
He 15.000000000   -33.000000000   15.000000000
H 12.000000000   -36.000000000   18.000000000
He 15.000000000   -33.000000000   21.000000000
H 12.000000000   -36.000000000   24.000000000
He 15.000000000   -33.000000000   27.000000000
H 12.000000000   -36.000000000   30.000000000
He 15.000000000   -33.000000000   33.000000000
H 12.000000000   -36.000000000   36.000000000
He 15.000000000   -33.000000000   39.000000000
H 12.000000000   -36.000000000   42.000000000
He 15.000000000   -33.000000000   45.000000000
H 12.000000000   -36.000000000   48.000000000
He 15.000000000   -33.000000000   51.000000000
H 12.000000000   -36.000000000   54.000000000
He 15.000000000   -33.000000000   57.000000000
H 12.000000000   -36.000000000   60.000000000
He 15.000000000   -33.000000000   63.000000000
H 12.000000000   -36.000000000   66.000000000
He 15.000000000   -33.000000000   69.000000000
H 12.000000000   -36.000000000   72.000000000
He 15.000000000   -33.000000000   75.000000000
H 12.000000000   -30.000000000   0.000000000
He 15.000000000   -27.000000000   3.000000000
H 12.000000000   -30.000000000   6.000000000
He 15.000000000   -27.000000000   9.000000000
H 12.000000000   -30.000000000   12.000000000
He 15.000000000   -27.000000000   15.000000000
H 12.000000000   -30.000000000   18.000000000
He 15.000000000   -27.000000000   21.000000000
H 12.000000000   -30.000000000   24.000000000
He 15.000000000   -27.000000000   27.000000000
H 12.000000000   -30.000000000   30.000000000
He 15.000000000   -27.000000000   33.000000000
H 12.000000000   -30.000000000   36.000000000
He 15.000000000   -27.000000000   39.000000000
H 12.000000000   -30.000000000   42.000000000
He 15.000000000   -27.000000000   45.000000000
H 12.000000000   -30.000000000   48.000000000
He 15.000000000   -27.000000000   51.000000000
H 12.000000000   -30.000000000   54.000000000
He 15.000000000   -27.000000000   57.000000000
H 12.000000000   -30.000000000   60.000000000
He 15.000000000   -27.000000000   63.000000000
H 12.000000000   -30.000000000   66.000000000
He 15.000000000   -27.000000000   69.000000000
H 12.000000000   -30.000000000   72.000000000
He 15.000000000   -27.000000000   75.000000000
H 12.000000000   -24.000000000   0.000000000
He 15.000000000   -21.000000000   3.000000000
H 12.000000000   -24.000000000   6.000000000
He 15.000000000   -21.000000000   9.000000000
H 12.000000000   -24.000000000   12.000000000
He 15.000000000   -21.000000000   15.000000000
H 12.000000000   -24.000000000   18.000000000
He 15.000000000   -21.000000000   21.000000000
H 12.000000000   -24.000000000   24.000000000
He 15.000000000   -21.000000000   27.000000000
H 12.000000000   -24.000000000   30.000000000
He 15.000000000   -21.000000000   33.000000000
H 12.000000000   -24.000000000   36.000000000
He 15.000000000   -21.000000000   39.000000000
H 12.000000000   -24.000000000   42.000000000
He 15.000000000   -21.000000000   45.000000000
H 12.000000000   -24.000000000   48.000000000
He 15.000000000   -21.000000000   51.000000000
H 12.000000000   -24.000000000   54.000000000
He 15.000000000   -21.000000000   57.000000000
H 12.000000000   -24.000000000   60.000000000
He 15.000000000   -21.000000000   63.000000000
H 12.000000000   -24.000000000   66.000000000
He 15.000000000   -21.000000000   69.000000000
H 12.000000000   -24.000000000   72.000000000
He 15.000000000   -21.000000000   75.000000000
H 12.000000000   -18.000000000   0.000000000
He 15.000000000   -15.000000000   3.000000000
H 12.000000000   -18.000000000   6.000000000
He 15.000000000   -15.000000000   9.000000000
H 12.000000000   -18.000000000   12.000000000
He 15.000000000   -15.000000000   15.000000000
H 12.000000000   -18.000000000   18.000000000
He 15.000000000   -15.000000000   21.000000000
H 12.000000000   -18.000000000   24.000000000
He 15.000000000   -15.000000000   27.000000000
H 12.000000000   -18.000000000   30.000000000
He 15.000000000   -15.000000000   33.000000000
H 12.000000000   -18.000000000   36.000000000
He 15.000000000   -15.000000000   39.000000000
H 12.000000000   -18.000000000   42.000000000
He 15.000000000   -15.000000000   45.000000000
H 12.000000000   -18.000000000   48.000000000
He 15.000000000   -15.000000000   51.000000000
H 12.000000000   -18.000000000   54.000000000
He 15.000000000   -15.000000000   57.000000000
H 12.000000000   -18.000000000   60.000000000
He 15.000000000   -15.000000000   63.000000000
H 12.000000000   -18.000000000   66.000000000
He 15.000000000   -15.000000000   69.000000000
H 12.000000000   -18.000000000   72.000000000
He 15.000000000   -15.000000000   75.000000000
H 12.000000000   -12.000000000   0.000000000
He 15.000000000   -9.000000000   3.000000000
H 12.000000000   -12.000000000   6.000000000
He 15.000000000   -9.000000000   9.000000000
H 12.000000000   -12.000000000   12.000000000
He 15.000000000   -9.000000000   15.000000000
H 12.000000000   -12.000000000   18.000000000
He 15.000000000   -9.000000000   21.000000000
H 12.000000000   -12.000000000   24.000000000
He 15.000000000   -9.000000000   27.000000000
H 12.000000000   -12.000000000   30.000000000
He 15.000000000   -9.000000000   33.000000000
H 12.000000000   -12.000000000   36.000000000
He 15.000000000   -9.000000000   39.000000000
H 12.000000000   -12.000000000   42.000000000
He 15.000000000   -9.000000000   45.000000000
H 12.000000000   -12.000000000   48.000000000
He 15.000000000   -9.000000000   51.000000000
H 12.000000000   -12.000000000   54.000000000
He 15.000000000   -9.000000000   57.000000000
H 12.000000000   -12.000000000   60.000000000
He 15.000000000   -9.000000000   63.000000000
H 12.000000000   -12.000000000   66.000000000
He 15.000000000   -9.000000000   69.000000000
H 12.000000000   -12.000000000   72.000000000
He 15.000000000   -9.000000000   75.000000000
H 12.000000000   -6.000000000   0.000000000
He 15.000000000   -3.000000000   3.000000000
H 12.000000000   -6.000000000   6.000000000
He 15.000000000   -3.000000000   9.000000000
H 12.000000000   -6.000000000   12.000000000
He 15.000000000   -3.000000000   15.000000000
H 12.000000000   -6.000000000   18.000000000
He 15.000000000   -3.000000000   21.000000000
H 12.000000000   -6.000000000   24.000000000
He 15.000000000   -3.000000000   27.000000000
H 12.000000000   -6.000000000   30.000000000
He 15.000000000   -3.000000000   33.000000000
H 12.000000000   -6.000000000   36.000000000
He 15.000000000   -3.000000000   39.000000000
H 12.000000000   -6.000000000   42.000000000
He 15.000000000   -3.000000000   45.000000000
H 12.000000000   -6.000000000   48.000000000
He 15.000000000   -3.000000000   51.000000000
H 12.000000000   -6.000000000   54.000000000
He 15.000000000   -3.000000000   57.000000000
H 12.000000000   -6.000000000   60.000000000
He 15.000000000   -3.000000000   63.000000000
H 12.000000000   -6.000000000   66.000000000
He 15.000000000   -3.000000000   69.000000000
H 12.000000000   -6.000000000   72.000000000
He 15.000000000   -3.000000000   75.000000000
H 12.000000000   0.000000000   0.000000000
He 15.000000000   3.000000000   3.000000000
H 12.000000000   0.000000000   6.000000000
He 15.000000000   3.000000000   9.000000000
H 12.000000000   0.000000000   12.000000000
He 15.000000000   3.000000000   15.000000000
H 12.000000000   0.000000000   18.000000000
He 15.000000000   3.000000000   21.000000000
H 12.000000000   0.000000000   24.000000000
He 15.000000000   3.000000000   27.000000000
H 12.000000000   0.000000000   30.000000000
He 15.000000000   3.000000000   33.000000000
H 12.000000000   0.000000000   36.000000000
He 15.000000000   3.000000000   39.000000000
H 12.000000000   0.000000000   42.000000000
He 15.000000000   3.000000000   45.000000000
H 12.000000000   0.000000000   48.000000000
He 15.000000000   3.000000000   51.000000000
H 12.000000000   0.000000000   54.000000000
He 15.000000000   3.000000000   57.000000000
H 12.000000000   0.000000000   60.000000000
He 15.000000000   3.000000000   63.000000000
H 12.000000000   0.000000000   66.000000000
He 15.000000000   3.000000000   69.000000000
H 12.000000000   0.000000000   72.000000000
He 15.000000000   3.000000000   75.000000000
H 12.000000000   6.000000000   0.000000000
He 15.000000000   9.000000000   3.000000000
H 12.000000000   6.000000000   6.000000000
He 15.000000000   9.000000000   9.000000000
H 12.000000000   6.000000000   12.000000000
He 15.000000000   9.000000000   15.000000000
H 12.000000000   6.000000000   18.000000000
He 15.000000000   9.000000000   21.000000000
H 12.000000000   6.000000000   24.000000000
He 15.000000000   9.000000000   27.000000000
H 12.000000000   6.000000000   30.000000000
He 15.000000000   9.000000000   33.000000000
H 12.000000000   6.000000000   36.000000000
He 15.000000000   9.000000000   39.000000000
H 12.000000000   6.000000000   42.000000000
He 15.000000000   9.000000000   45.000000000
H 12.000000000   6.000000000   48.000000000
He 15.000000000   9.000000000   51.000000000
H 12.000000000   6.000000000   54.000000000
He 15.000000000   9.000000000   57.000000000
H 12.000000000   6.000000000   60.000000000
He 15.000000000   9.000000000   63.000000000
H 12.000000000   6.000000000   66.000000000
He 15.000000000   9.000000000   69.000000000
H 12.000000000   6.000000000   72.000000000
He 15.000000000   9.000000000   75.000000000
H 12.000000000   12.000000000   0.000000000
He 15.000000000   15.000000000   3.000000000
H 12.000000000   12.000000000   6.000000000
He 15.000000000   15.000000000   9.000000000
H 12.000000000   12.000000000   12.000000000
He 15.000000000   15.000000000   15.000000000
H 12.000000000   12.000000000   18.000000000
He 15.000000000   15.000000000   21.000000000
H 12.000000000   12.000000000   24.000000000
He 15.000000000   15.000000000   27.000000000
H 12.000000000   12.000000000   30.000000000
He 15.000000000   15.000000000   33.000000000
H 12.000000000   12.000000000   36.000000000
He 15.000000000   15.000000000   39.000000000
H 12.000000000   12.000000000   42.000000000
He 15.000000000   15.000000000   45.000000000
H 12.000000000   12.000000000   48.000000000
He 15.000000000   15.000000000   51.000000000
H 12.000000000   12.000000000   54.000000000
He 15.000000000   15.000000000   57.000000000
H 12.000000000   12.000000000   60.000000000
He 15.000000000   15.000000000   63.000000000
H 12.000000000   12.000000000   66.000000000
He 15.000000000   15.000000000   69.000000000
H 12.000000000   12.000000000   72.000000000
He 15.000000000   15.000000000   75.000000000
He 21.000000000   -39.000000000   3.000000000
He 21.000000000   -39.000000000   9.000000000
He 21.000000000   -39.000000000   15.000000000
He 21.000000000   -39.000000000   21.000000000
He 21.000000000   -39.000000000   27.000000000
He 21.000000000   -39.000000000   33.000000000
He 21.000000000   -39.000000000   39.000000000
He 21.000000000   -39.000000000   45.000000000
He 21.000000000   -39.000000000   51.000000000
He 21.000000000   -39.000000000   57.000000000
He 21.000000000   -39.000000000   63.000000000
He 21.000000000   -39.000000000   69.000000000
He 21.000000000   -39.000000000   75.000000000
H 18.000000000   -36.000000000   0.000000000
He 21.000000000   -33.000000000   3.000000000
H 18.000000000   -36.000000000   6.000000000
He 21.000000000   -33.000000000   9.000000000
H 18.000000000   -36.000000000   12.000000000
He 21.000000000   -33.000000000   15.000000000
H 18.000000000   -36.000000000   18.000000000
He 21.000000000   -33.000000000   21.000000000
H 18.000000000   -36.000000000   24.000000000
He 21.000000000   -33.000000000   27.000000000
H 18.000000000   -36.000000000   30.000000000
He 21.000000000   -33.000000000   33.000000000
H 18.000000000   -36.000000000   36.000000000
He 21.000000000   -33.000000000   39.000000000
H 18.000000000   -36.000000000   42.000000000
He 21.000000000   -33.000000000   45.000000000
H 18.000000000   -36.000000000   48.000000000
He 21.000000000   -33.000000000   51.000000000
H 18.000000000   -36.000000000   54.000000000
He 21.000000000   -33.000000000   57.000000000
H 18.000000000   -36.000000000   60.000000000
He 21.000000000   -33.000000000   63.000000000
H 18.000000000   -36.000000000   66.000000000
He 21.000000000   -33.000000000   69.000000000
H 18.000000000   -36.000000000   72.000000000
He 21.000000000   -33.000000000   75.000000000
H 18.000000000   -30.000000000   0.000000000
He 21.000000000   -27.000000000   3.000000000
H 18.000000000   -30.000000000   6.000000000
He 21.000000000   -27.000000000   9.000000000
H 18.000000000   -30.000000000   12.000000000
He 21.000000000   -27.000000000   15.000000000
H 18.000000000   -30.000000000   18.000000000
He 21.000000000   -27.000000000   21.000000000
H 18.000000000   -30.000000000   24.000000000
He 21.000000000   -27.000000000   27.000000000
H 18.000000000   -30.000000000   30.000000000
He 21.000000000   -27.000000000   33.000000000
H 18.000000000   -30.000000000   36.000000000
He 21.000000000   -27.000000000   39.000000000
H 18.000000000   -30.000000000   42.000000000
He 21.000000000   -27.000000000   45.000000000
H 18.000000000   -30.000000000   48.000000000
He 21.000000000   -27.000000000   51.000000000
H 18.000000000   -30.000000000   54.000000000
He 21.000000000   -27.000000000   57.000000000
H 18.000000000   -30.000000000   60.000000000
He 21.000000000   -27.000000000   63.000000000
H 18.000000000   -30.000000000   66.000000000
He 21.000000000   -27.000000000   69.000000000
H 18.000000000   -30.000000000   72.000000000
He 21.000000000   -27.000000000   75.000000000
H 18.000000000   -24.000000000   0.000000000
He 21.000000000   -21.000000000   3.000000000
H 18.000000000   -24.000000000   6.000000000
He 21.000000000   -21.000000000   9.000000000
H 18.000000000   -24.000000000   12.000000000
He 21.000000000   -21.000000000   15.000000000
H 18.000000000   -24.000000000   18.000000000
He 21.000000000   -21.000000000   21.000000000
H 18.000000000   -24.000000000   24.000000000
He 21.000000000   -21.000000000   27.000000000
H 18.000000000   -24.000000000   30.000000000
He 21.000000000   -21.000000000   33.000000000
H 18.000000000   -24.000000000   36.000000000
He 21.000000000   -21.000000000   39.000000000
H 18.000000000   -24.000000000   42.000000000
He 21.000000000   -21.000000000   45.000000000
H 18.000000000   -24.000000000   48.000000000
He 21.000000000   -21.000000000   51.000000000
H 18.000000000   -24.000000000   54.000000000
He 21.000000000   -21.000000000   57.000000000
H 18.000000000   -24.000000000   60.000000000
He 21.000000000   -21.000000000   63.000000000
H 18.000000000   -24.000000000   66.000000000
He 21.000000000   -21.000000000   69.000000000
H 18.000000000   -24.000000000   72.000000000
He 21.000000000   -21.000000000   75.000000000
H 18.000000000   -18.000000000   0.000000000
He 21.000000000   -15.000000000   3.000000000
H 18.000000000   -18.000000000   6.000000000
He 21.000000000   -15.000000000   9.000000000
H 18.000000000   -18.000000000   12.000000000
He 21.000000000   -15.000000000   15.000000000
H 18.000000000   -18.000000000   18.000000000
He 21.000000000   -15.000000000   21.000000000
H 18.000000000   -18.000000000   24.000000000
He 21.000000000   -15.000000000   27.000000000
H 18.000000000   -18.000000000   30.000000000
He 21.000000000   -15.000000000   33.000000000
H 18.000000000   -18.000000000   36.000000000
He 21.000000000   -15.000000000   39.000000000
H 18.000000000   -18.000000000   42.000000000
He 21.000000000   -15.000000000   45.000000000
H 18.000000000   -18.000000000   48.000000000
He 21.000000000   -15.000000000   51.000000000
H 18.000000000   -18.000000000   54.000000000
He 21.000000000   -15.000000000   57.000000000
H 18.000000000   -18.000000000   60.000000000
He 21.000000000   -15.000000000   63.000000000
H 18.000000000   -18.000000000   66.000000000
He 21.000000000   -15.000000000   69.000000000
H 18.000000000   -18.000000000   72.000000000
He 21.000000000   -15.000000000   75.000000000
H 18.000000000   -12.000000000   0.000000000
He 21.000000000   -9.000000000   3.000000000
H 18.000000000   -12.000000000   6.000000000
He 21.000000000   -9.000000000   9.000000000
H 18.000000000   -12.000000000   12.000000000
He 21.000000000   -9.000000000   15.000000000
H 18.000000000   -12.000000000   18.000000000
He 21.000000000   -9.000000000   21.000000000
H 18.000000000   -12.000000000   24.000000000
He 21.000000000   -9.000000000   27.000000000
H 18.000000000   -12.000000000   30.000000000
He 21.000000000   -9.000000000   33.000000000
H 18.000000000   -12.000000000   36.000000000
He 21.000000000   -9.000000000   39.000000000
H 18.000000000   -12.000000000   42.000000000
He 21.000000000   -9.000000000   45.000000000
H 18.000000000   -12.000000000   48.000000000
He 21.000000000   -9.000000000   51.000000000
H 18.000000000   -12.000000000   54.000000000
He 21.000000000   -9.000000000   57.000000000
H 18.000000000   -12.000000000   60.000000000
He 21.000000000   -9.000000000   63.000000000
H 18.000000000   -12.000000000   66.000000000
He 21.000000000   -9.000000000   69.000000000
H 18.000000000   -12.000000000   72.000000000
He 21.000000000   -9.000000000   75.000000000
H 18.000000000   -6.000000000   0.000000000
He 21.000000000   -3.000000000   3.000000000
H 18.000000000   -6.000000000   6.000000000
He 21.000000000   -3.000000000   9.000000000
H 18.000000000   -6.000000000   12.000000000
He 21.000000000   -3.000000000   15.000000000
H 18.000000000   -6.000000000   18.000000000
He 21.000000000   -3.000000000   21.000000000
H 18.000000000   -6.000000000   24.000000000
He 21.000000000   -3.000000000   27.000000000
H 18.000000000   -6.000000000   30.000000000
He 21.000000000   -3.000000000   33.000000000
H 18.000000000   -6.000000000   36.000000000
He 21.000000000   -3.000000000   39.000000000
H 18.000000000   -6.000000000   42.000000000
He 21.000000000   -3.000000000   45.000000000
H 18.000000000   -6.000000000   48.000000000
He 21.000000000   -3.000000000   51.000000000
H 18.000000000   -6.000000000   54.000000000
He 21.000000000   -3.000000000   57.000000000
H 18.000000000   -6.000000000   60.000000000
He 21.000000000   -3.000000000   63.000000000
H 18.000000000   -6.000000000   66.000000000
He 21.000000000   -3.000000000   69.000000000
H 18.000000000   -6.000000000   72.000000000
He 21.000000000   -3.000000000   75.000000000
H 18.000000000   0.000000000   0.000000000
He 21.000000000   3.000000000   3.000000000
H 18.000000000   0.000000000   6.000000000
He 21.000000000   3.000000000   9.000000000
H 18.000000000   0.000000000   12.000000000
He 21.000000000   3.000000000   15.000000000
H 18.000000000   0.000000000   18.000000000
He 21.000000000   3.000000000   21.000000000
H 18.000000000   0.000000000   24.000000000
He 21.000000000   3.000000000   27.000000000
H 18.000000000   0.000000000   30.000000000
He 21.000000000   3.000000000   33.000000000
H 18.000000000   0.000000000   36.000000000
He 21.000000000   3.000000000   39.000000000
H 18.000000000   0.000000000   42.000000000
He 21.000000000   3.000000000   45.000000000
H 18.000000000   0.000000000   48.000000000
He 21.000000000   3.000000000   51.000000000
H 18.000000000   0.000000000   54.000000000
He 21.000000000   3.000000000   57.000000000
H 18.000000000   0.000000000   60.000000000
He 21.000000000   3.000000000   63.000000000
H 18.000000000   0.000000000   66.000000000
He 21.000000000   3.000000000   69.000000000
H 18.000000000   0.000000000   72.000000000
He 21.000000000   3.000000000   75.000000000
H 18.000000000   6.000000000   0.000000000
He 21.000000000   9.000000000   3.000000000
H 18.000000000   6.000000000   6.000000000
He 21.000000000   9.000000000   9.000000000
H 18.000000000   6.000000000   12.000000000
He 21.000000000   9.000000000   15.000000000
H 18.000000000   6.000000000   18.000000000
He 21.000000000   9.000000000   21.000000000
H 18.000000000   6.000000000   24.000000000
He 21.000000000   9.000000000   27.000000000
H 18.000000000   6.000000000   30.000000000
He 21.000000000   9.000000000   33.000000000
H 18.000000000   6.000000000   36.000000000
He 21.000000000   9.000000000   39.000000000
H 18.000000000   6.000000000   42.000000000
He 21.000000000   9.000000000   45.000000000
H 18.000000000   6.000000000   48.000000000
He 21.000000000   9.000000000   51.000000000
H 18.000000000   6.000000000   54.000000000
He 21.000000000   9.000000000   57.000000000
H 18.000000000   6.000000000   60.000000000
He 21.000000000   9.000000000   63.000000000
H 18.000000000   6.000000000   66.000000000
He 21.000000000   9.000000000   69.000000000
H 18.000000000   6.000000000   72.000000000
He 21.000000000   9.000000000   75.000000000
H 18.000000000   12.000000000   0.000000000
He 21.000000000   15.000000000   3.000000000
H 18.000000000   12.000000000   6.000000000
He 21.000000000   15.000000000   9.000000000
H 18.000000000   12.000000000   12.000000000
He 21.000000000   15.000000000   15.000000000
H 18.000000000   12.000000000   18.000000000
He 21.000000000   15.000000000   21.000000000
H 18.000000000   12.000000000   24.000000000
He 21.000000000   15.000000000   27.000000000
H 18.000000000   12.000000000   30.000000000
He 21.000000000   15.000000000   33.000000000
H 18.000000000   12.000000000   36.000000000
He 21.000000000   15.000000000   39.000000000
H 18.000000000   12.000000000   42.000000000
He 21.000000000   15.000000000   45.000000000
H 18.000000000   12.000000000   48.000000000
He 21.000000000   15.000000000   51.000000000
H 18.000000000   12.000000000   54.000000000
He 21.000000000   15.000000000   57.000000000
H 18.000000000   12.000000000   60.000000000
He 21.000000000   15.000000000   63.000000000
H 18.000000000   12.000000000   66.000000000
He 21.000000000   15.000000000   69.000000000
H 18.000000000   12.000000000   72.000000000
He 21.000000000   15.000000000   75.000000000
He 27.000000000   -39.000000000   3.000000000
He 27.000000000   -39.000000000   9.000000000
He 27.000000000   -39.000000000   15.000000000
He 27.000000000   -39.000000000   21.000000000
He 27.000000000   -39.000000000   27.000000000
He 27.000000000   -39.000000000   33.000000000
He 27.000000000   -39.000000000   39.000000000
He 27.000000000   -39.000000000   45.000000000
He 27.000000000   -39.000000000   51.000000000
He 27.000000000   -39.000000000   57.000000000
He 27.000000000   -39.000000000   63.000000000
He 27.000000000   -39.000000000   69.000000000
He 27.000000000   -39.000000000   75.000000000
H 24.000000000   -36.000000000   0.000000000
He 27.000000000   -33.000000000   3.000000000
H 24.000000000   -36.000000000   6.000000000
He 27.000000000   -33.000000000   9.000000000
H 24.000000000   -36.000000000   12.000000000
He 27.000000000   -33.000000000   15.000000000
H 24.000000000   -36.000000000   18.000000000
He 27.000000000   -33.000000000   21.000000000
H 24.000000000   -36.000000000   24.000000000
He 27.000000000   -33.000000000   27.000000000
H 24.000000000   -36.000000000   30.000000000
He 27.000000000   -33.000000000   33.000000000
H 24.000000000   -36.000000000   36.000000000
He 27.000000000   -33.000000000   39.000000000
H 24.000000000   -36.000000000   42.000000000
He 27.000000000   -33.000000000   45.000000000
H 24.000000000   -36.000000000   48.000000000
He 27.000000000   -33.000000000   51.000000000
H 24.000000000   -36.000000000   54.000000000
He 27.000000000   -33.000000000   57.000000000
H 24.000000000   -36.000000000   60.000000000
He 27.000000000   -33.000000000   63.000000000
H 24.000000000   -36.000000000   66.000000000
He 27.000000000   -33.000000000   69.000000000
H 24.000000000   -36.000000000   72.000000000
He 27.000000000   -33.000000000   75.000000000
H 24.000000000   -30.000000000   0.000000000
He 27.000000000   -27.000000000   3.000000000
H 24.000000000   -30.000000000   6.000000000
He 27.000000000   -27.000000000   9.000000000
H 24.000000000   -30.000000000   12.000000000
He 27.000000000   -27.000000000   15.000000000
H 24.000000000   -30.000000000   18.000000000
He 27.000000000   -27.000000000   21.000000000
H 24.000000000   -30.000000000   24.000000000
He 27.000000000   -27.000000000   27.000000000
H 24.000000000   -30.000000000   30.000000000
He 27.000000000   -27.000000000   33.000000000
H 24.000000000   -30.000000000   36.000000000
He 27.000000000   -27.000000000   39.000000000
H 24.000000000   -30.000000000   42.000000000
He 27.000000000   -27.000000000   45.000000000
H 24.000000000   -30.000000000   48.000000000
He 27.000000000   -27.000000000   51.000000000
H 24.000000000   -30.000000000   54.000000000
He 27.000000000   -27.000000000   57.000000000
H 24.000000000   -30.000000000   60.000000000
He 27.000000000   -27.000000000   63.000000000
H 24.000000000   -30.000000000   66.000000000
He 27.000000000   -27.000000000   69.000000000
H 24.000000000   -30.000000000   72.000000000
He 27.000000000   -27.000000000   75.000000000
H 24.000000000   -24.000000000   0.000000000
He 27.000000000   -21.000000000   3.000000000
H 24.000000000   -24.000000000   6.000000000
He 27.000000000   -21.000000000   9.000000000
H 24.000000000   -24.000000000   12.000000000
He 27.000000000   -21.000000000   15.000000000
H 24.000000000   -24.000000000   18.000000000
He 27.000000000   -21.000000000   21.000000000
H 24.000000000   -24.000000000   24.000000000
He 27.000000000   -21.000000000   27.000000000
H 24.000000000   -24.000000000   30.000000000
He 27.000000000   -21.000000000   33.000000000
H 24.000000000   -24.000000000   36.000000000
He 27.000000000   -21.000000000   39.000000000
H 24.000000000   -24.000000000   42.000000000
He 27.000000000   -21.000000000   45.000000000
H 24.000000000   -24.000000000   48.000000000
He 27.000000000   -21.000000000   51.000000000
H 24.000000000   -24.000000000   54.000000000
He 27.000000000   -21.000000000   57.000000000
H 24.000000000   -24.000000000   60.000000000
He 27.000000000   -21.000000000   63.000000000
H 24.000000000   -24.000000000   66.000000000
He 27.000000000   -21.000000000   69.000000000
H 24.000000000   -24.000000000   72.000000000
He 27.000000000   -21.000000000   75.000000000
H 24.000000000   -18.000000000   0.000000000
He 27.000000000   -15.000000000   3.000000000
H 24.000000000   -18.000000000   6.000000000
He 27.000000000   -15.000000000   9.000000000
H 24.000000000   -18.000000000   12.000000000
He 27.000000000   -15.000000000   15.000000000
H 24.000000000   -18.000000000   18.000000000
He 27.000000000   -15.000000000   21.000000000
H 24.000000000   -18.000000000   24.000000000
He 27.000000000   -15.000000000   27.000000000
H 24.000000000   -18.000000000   30.000000000
He 27.000000000   -15.000000000   33.000000000
H 24.000000000   -18.000000000   36.000000000
He 27.000000000   -15.000000000   39.000000000
H 24.000000000   -18.000000000   42.000000000
He 27.000000000   -15.000000000   45.000000000
H 24.000000000   -18.000000000   48.000000000
He 27.000000000   -15.000000000   51.000000000
H 24.000000000   -18.000000000   54.000000000
He 27.000000000   -15.000000000   57.000000000
H 24.000000000   -18.000000000   60.000000000
He 27.000000000   -15.000000000   63.000000000
H 24.000000000   -18.000000000   66.000000000
He 27.000000000   -15.000000000   69.000000000
H 24.000000000   -18.000000000   72.000000000
He 27.000000000   -15.000000000   75.000000000
H 24.000000000   -12.000000000   0.000000000
He 27.000000000   -9.000000000   3.000000000
H 24.000000000   -12.000000000   6.000000000
He 27.000000000   -9.000000000   9.000000000
H 24.000000000   -12.000000000   12.000000000
He 27.000000000   -9.000000000   15.000000000
H 24.000000000   -12.000000000   18.000000000
He 27.000000000   -9.000000000   21.000000000
H 24.000000000   -12.000000000   24.000000000
He 27.000000000   -9.000000000   27.000000000
H 24.000000000   -12.000000000   30.000000000
He 27.000000000   -9.000000000   33.000000000
H 24.000000000   -12.000000000   36.000000000
He 27.000000000   -9.000000000   39.000000000
H 24.000000000   -12.000000000   42.000000000
He 27.000000000   -9.000000000   45.000000000
H 24.000000000   -12.000000000   48.000000000
He 27.000000000   -9.000000000   51.000000000
H 24.000000000   -12.000000000   54.000000000
He 27.000000000   -9.000000000   57.000000000
H 24.000000000   -12.000000000   60.000000000
He 27.000000000   -9.000000000   63.000000000
H 24.000000000   -12.000000000   66.000000000
He 27.000000000   -9.000000000   69.000000000
H 24.000000000   -12.000000000   72.000000000
He 27.000000000   -9.000000000   75.000000000
H 24.000000000   -6.000000000   0.000000000
He 27.000000000   -3.000000000   3.000000000
H 24.000000000   -6.000000000   6.000000000
He 27.000000000   -3.000000000   9.000000000
H 24.000000000   -6.000000000   12.000000000
He 27.000000000   -3.000000000   15.000000000
H 24.000000000   -6.000000000   18.000000000
He 27.000000000   -3.000000000   21.000000000
H 24.000000000   -6.000000000   24.000000000
He 27.000000000   -3.000000000   27.000000000
H 24.000000000   -6.000000000   30.000000000
He 27.000000000   -3.000000000   33.000000000
H 24.000000000   -6.000000000   36.000000000
He 27.000000000   -3.000000000   39.000000000
H 24.000000000   -6.000000000   42.000000000
He 27.000000000   -3.000000000   45.000000000
H 24.000000000   -6.000000000   48.000000000
He 27.000000000   -3.000000000   51.000000000
H 24.000000000   -6.000000000   54.000000000
He 27.000000000   -3.000000000   57.000000000
H 24.000000000   -6.000000000   60.000000000
He 27.000000000   -3.000000000   63.000000000
H 24.000000000   -6.000000000   66.000000000
He 27.000000000   -3.000000000   69.000000000
H 24.000000000   -6.000000000   72.000000000
He 27.000000000   -3.000000000   75.000000000
H 24.000000000   0.000000000   0.000000000
He 27.000000000   3.000000000   3.000000000
H 24.000000000   0.000000000   6.000000000
He 27.000000000   3.000000000   9.000000000
H 24.000000000   0.000000000   12.000000000
He 27.000000000   3.000000000   15.000000000
H 24.000000000   0.000000000   18.000000000
He 27.000000000   3.000000000   21.000000000
H 24.000000000   0.000000000   24.000000000
He 27.000000000   3.000000000   27.000000000
H 24.000000000   0.000000000   30.000000000
He 27.000000000   3.000000000   33.000000000
H 24.000000000   0.000000000   36.000000000
He 27.000000000   3.000000000   39.000000000
H 24.000000000   0.000000000   42.000000000
He 27.000000000   3.000000000   45.000000000
H 24.000000000   0.000000000   48.000000000
He 27.000000000   3.000000000   51.000000000
H 24.000000000   0.000000000   54.000000000
He 27.000000000   3.000000000   57.000000000
H 24.000000000   0.000000000   60.000000000
He 27.000000000   3.000000000   63.000000000
H 24.000000000   0.000000000   66.000000000
He 27.000000000   3.000000000   69.000000000
H 24.000000000   0.000000000   72.000000000
He 27.000000000   3.000000000   75.000000000
H 24.000000000   6.000000000   0.000000000
He 27.000000000   9.000000000   3.000000000
H 24.000000000   6.000000000   6.000000000
He 27.000000000   9.000000000   9.000000000
H 24.000000000   6.000000000   12.000000000
He 27.000000000   9.000000000   15.000000000
H 24.000000000   6.000000000   18.000000000
He 27.000000000   9.000000000   21.000000000
H 24.000000000   6.000000000   24.000000000
He 27.000000000   9.000000000   27.000000000
H 24.000000000   6.000000000   30.000000000
He 27.000000000   9.000000000   33.000000000
H 24.000000000   6.000000000   36.000000000
He 27.000000000   9.000000000   39.000000000
H 24.000000000   6.000000000   42.000000000
He 27.000000000   9.000000000   45.000000000
H 24.000000000   6.000000000   48.000000000
He 27.000000000   9.000000000   51.000000000
H 24.000000000   6.000000000   54.000000000
He 27.000000000   9.000000000   57.000000000
H 24.000000000   6.000000000   60.000000000
He 27.000000000   9.000000000   63.000000000
H 24.000000000   6.000000000   66.000000000
He 27.000000000   9.000000000   69.000000000
H 24.000000000   6.000000000   72.000000000
He 27.000000000   9.000000000   75.000000000
H 24.000000000   12.000000000   0.000000000
He 27.000000000   15.000000000   3.000000000
H 24.000000000   12.000000000   6.000000000
He 27.000000000   15.000000000   9.000000000
H 24.000000000   12.000000000   12.000000000
He 27.000000000   15.000000000   15.000000000
H 24.000000000   12.000000000   18.000000000
He 27.000000000   15.000000000   21.000000000
H 24.000000000   12.000000000   24.000000000
He 27.000000000   15.000000000   27.000000000
H 24.000000000   12.000000000   30.000000000
He 27.000000000   15.000000000   33.000000000
H 24.000000000   12.000000000   36.000000000
He 27.000000000   15.000000000   39.000000000
H 24.000000000   12.000000000   42.000000000
He 27.000000000   15.000000000   45.000000000
H 24.000000000   12.000000000   48.000000000
He 27.000000000   15.000000000   51.000000000
H 24.000000000   12.000000000   54.000000000
He 27.000000000   15.000000000   57.000000000
H 24.000000000   12.000000000   60.000000000
He 27.000000000   15.000000000   63.000000000
H 24.000000000   12.000000000   66.000000000
He 27.000000000   15.000000000   69.000000000
H 24.000000000   12.000000000   72.000000000
He 27.000000000   15.000000000   75.000000000
C 30.000000000   -36.000000000   0.000000000
C 30.000000000   -36.000000000   6.000000000
C 30.000000000   -36.000000000   12.000000000
C 30.000000000   -36.000000000   18.000000000
C 30.000000000   -36.000000000   24.000000000
C 30.000000000   -36.000000000   30.000000000
C 30.000000000   -36.000000000   36.000000000
H 30.000000000   -36.000000000   42.000000000
H 30.000000000   -36.000000000   48.000000000
H 30.000000000   -36.000000000   54.000000000
H 30.000000000   -36.000000000   60.000000000
H 30.000000000   -36.000000000   66.000000000
H 30.000000000   -36.000000000   72.000000000
C 30.000000000   -30.000000000   0.000000000
C 30.000000000   -30.000000000   6.000000000
C 30.000000000   -30.000000000   12.000000000
C 30.000000000   -30.000000000   18.000000000
C 30.000000000   -30.000000000   24.000000000
C 30.000000000   -30.000000000   30.000000000
C 30.000000000   -30.000000000   36.000000000
H 30.000000000   -30.000000000   42.000000000
H 30.000000000   -30.000000000   48.000000000
H 30.000000000   -30.000000000   54.000000000
H 30.000000000   -30.000000000   60.000000000
H 30.000000000   -30.000000000   66.000000000
H 30.000000000   -30.000000000   72.000000000
C 30.000000000   -24.000000000   0.000000000
C 30.000000000   -24.000000000   6.000000000
C 30.000000000   -24.000000000   12.000000000
C 30.000000000   -24.000000000   18.000000000
C 30.000000000   -24.000000000   24.000000000
C 30.000000000   -24.000000000   30.000000000
C 30.000000000   -24.000000000   36.000000000
H 30.000000000   -24.000000000   42.000000000
H 30.000000000   -24.000000000   48.000000000
H 30.000000000   -24.000000000   54.000000000
H 30.000000000   -24.000000000   60.000000000
H 30.000000000   -24.000000000   66.000000000
H 30.000000000   -24.000000000   72.000000000
C 30.000000000   -18.000000000   0.000000000
C 30.000000000   -18.000000000   6.000000000
C 30.000000000   -18.000000000   12.000000000
C 30.000000000   -18.000000000   18.000000000
C 30.000000000   -18.000000000   24.000000000
C 30.000000000   -18.000000000   30.000000000
C 30.000000000   -18.000000000   36.000000000
H 30.000000000   -18.000000000   42.000000000
H 30.000000000   -18.000000000   48.000000000
H 30.000000000   -18.000000000   54.000000000
H 30.000000000   -18.000000000   60.000000000
H 30.000000000   -18.000000000   66.000000000
H 30.000000000   -18.000000000   72.000000000
C 30.000000000   -12.000000000   0.000000000
C 30.000000000   -12.000000000   6.000000000
C 30.000000000   -12.000000000   12.000000000
C 30.000000000   -12.000000000   18.000000000
C 30.000000000   -12.000000000   24.000000000
C 30.000000000   -12.000000000   30.000000000
C 30.000000000   -12.000000000   36.000000000
H 30.000000000   -12.000000000   42.000000000
H 30.000000000   -12.000000000   48.000000000
H 30.000000000   -12.000000000   54.000000000
H 30.000000000   -12.000000000   60.000000000
H 30.000000000   -12.000000000   66.000000000
H 30.000000000   -12.000000000   72.000000000
H 30.000000000   -6.000000000   0.000000000
H 30.000000000   -6.000000000   6.000000000
H 30.000000000   -6.000000000   12.000000000
H 30.000000000   -6.000000000   18.000000000
H 30.000000000   -6.000000000   24.000000000
H 30.000000000   -6.000000000   30.000000000
H 30.000000000   -6.000000000   36.000000000
H 30.000000000   -6.000000000   42.000000000
H 30.000000000   -6.000000000   48.000000000
H 30.000000000   -6.000000000   54.000000000
H 30.000000000   -6.000000000   60.000000000
H 30.000000000   -6.000000000   66.000000000
H 30.000000000   -6.000000000   72.000000000
H 30.000000000   0.000000000   0.000000000
H 30.000000000   0.000000000   6.000000000
H 30.000000000   0.000000000   12.000000000
H 30.000000000   0.000000000   18.000000000
H 30.000000000   0.000000000   24.000000000
H 30.000000000   0.000000000   30.000000000
H 30.000000000   0.000000000   36.000000000
H 30.000000000   0.000000000   42.000000000
H 30.000000000   0.000000000   48.000000000
H 30.000000000   0.000000000   54.000000000
H 30.000000000   0.000000000   60.000000000
H 30.000000000   0.000000000   66.000000000
H 30.000000000   0.000000000   72.000000000
H 30.000000000   6.000000000   0.000000000
H 30.000000000   6.000000000   6.000000000
H 30.000000000   6.000000000   12.000000000
H 30.000000000   6.000000000   18.000000000
H 30.000000000   6.000000000   24.000000000
H 30.000000000   6.000000000   30.000000000
H 30.000000000   6.000000000   36.000000000
H 30.000000000   6.000000000   42.000000000
H 30.000000000   6.000000000   48.000000000
H 30.000000000   6.000000000   54.000000000
H 30.000000000   6.000000000   60.000000000
H 30.000000000   6.000000000   66.000000000
H 30.000000000   6.000000000   72.000000000
H 30.000000000   12.000000000   0.000000000
H 30.000000000   12.000000000   6.000000000
H 30.000000000   12.000000000   12.000000000
H 30.000000000   12.000000000   18.000000000
H 30.000000000   12.000000000   24.000000000
H 30.000000000   12.000000000   30.000000000
H 30.000000000   12.000000000   36.000000000
H 30.000000000   12.000000000   42.000000000
H 30.000000000   12.000000000   48.000000000
H 30.000000000   12.000000000   54.000000000
H 30.000000000   12.000000000   60.000000000
H 30.000000000   12.000000000   66.000000000
H 30.000000000   12.000000000   72.000000000
He -165.000000000   -36.373066959   0.000000000
H -165.000000000   -39.837168574   4.898979486
He -165.000000000   -36.373066959   9.797958971
H -165.000000000   -39.837168574   14.696938457
He -165.000000000   -36.373066959   19.595917942
H -165.000000000   -39.837168574   24.494897428
He -165.000000000   -36.373066959   29.393876913
H -165.000000000   -39.837168574   34.292856399
He -165.000000000   -25.980762114   0.000000000
H -165.000000000   -29.444863729   4.898979486
He -165.000000000   -25.980762114   9.797958971
H -165.000000000   -29.444863729   14.696938457
He -165.000000000   -25.980762114   19.595917942
H -165.000000000   -29.444863729   24.494897428
He -165.000000000   -25.980762114   29.393876913
H -165.000000000   -29.444863729   34.292856399
He -159.000000000   -36.373066959   0.000000000
H -159.000000000   -39.837168574   4.898979486
H -162.000000000   -34.641016151   4.898979486
He -159.000000000   -36.373066959   9.797958971
H -159.000000000   -39.837168574   14.696938457
H -162.000000000   -34.641016151   14.696938457
He -159.000000000   -36.373066959   19.595917942
H -159.000000000   -39.837168574   24.494897428
H -162.000000000   -34.641016151   24.494897428
He -159.000000000   -36.373066959   29.393876913
H -159.000000000   -39.837168574   34.292856399
H -162.000000000   -34.641016151   34.292856399
He -162.000000000   -31.176914536   0.000000000
He -159.000000000   -25.980762114   0.000000000
H -159.000000000   -29.444863729   4.898979486
H -162.000000000   -24.248711306   4.898979486
He -162.000000000   -31.176914536   9.797958971
He -159.000000000   -25.980762114   9.797958971
H -159.000000000   -29.444863729   14.696938457
H -162.000000000   -24.248711306   14.696938457
He -162.000000000   -31.176914536   19.595917942
He -159.000000000   -25.980762114   19.595917942
H -159.000000000   -29.444863729   24.494897428
H -162.000000000   -24.248711306   24.494897428
He -162.000000000   -31.176914536   29.393876913
He -159.000000000   -25.980762114   29.393876913
H -159.000000000   -29.444863729   34.292856399
H -162.000000000   -24.248711306   34.292856399
He -162.000000000   -20.784609691   0.000000000
He -162.000000000   -20.784609691   9.797958971
He -162.000000000   -20.784609691   19.595917942
He -162.000000000   -20.784609691   29.393876913
He -153.000000000   -36.373066959   0.000000000
H -153.000000000   -39.837168574   4.898979486
H -156.000000000   -34.641016151   4.898979486
He -153.000000000   -36.373066959   9.797958971
H -153.000000000   -39.837168574   14.696938457
H -156.000000000   -34.641016151   14.696938457
He -153.000000000   -36.373066959   19.595917942
H -153.000000000   -39.837168574   24.494897428
H -156.000000000   -34.641016151   24.494897428
He -153.000000000   -36.373066959   29.393876913
H -153.000000000   -39.837168574   34.292856399
H -156.000000000   -34.641016151   34.292856399
He -156.000000000   -31.176914536   0.000000000
He -153.000000000   -25.980762114   0.000000000
H -153.000000000   -29.444863729   4.898979486
H -156.000000000   -24.248711306   4.898979486
He -156.000000000   -31.176914536   9.797958971
He -153.000000000   -25.980762114   9.797958971
H -153.000000000   -29.444863729   14.696938457
H -156.000000000   -24.248711306   14.696938457
He -156.000000000   -31.176914536   19.595917942
He -153.000000000   -25.980762114   19.595917942
H -153.000000000   -29.444863729   24.494897428
H -156.000000000   -24.248711306   24.494897428
He -156.000000000   -31.176914536   29.393876913
He -153.000000000   -25.980762114   29.393876913
H -153.000000000   -29.444863729   34.292856399
H -156.000000000   -24.248711306   34.292856399
He -156.000000000   -20.784609691   0.000000000
He -156.000000000   -20.784609691   9.797958971
He -156.000000000   -20.784609691   19.595917942
He -156.000000000   -20.784609691   29.393876913
He -147.000000000   -36.373066959   0.000000000
H -147.000000000   -39.837168574   4.898979486
H -150.000000000   -34.641016151   4.898979486
He -147.000000000   -36.373066959   9.797958971
H -147.000000000   -39.837168574   14.696938457
H -150.000000000   -34.641016151   14.696938457
He -147.000000000   -36.373066959   19.595917942
H -147.000000000   -39.837168574   24.494897428
H -150.000000000   -34.641016151   24.494897428
He -147.000000000   -36.373066959   29.393876913
H -147.000000000   -39.837168574   34.292856399
H -150.000000000   -34.641016151   34.292856399
He -150.000000000   -31.176914536   0.000000000
He -147.000000000   -25.980762114   0.000000000
H -147.000000000   -29.444863729   4.898979486
H -150.000000000   -24.248711306   4.898979486
He -150.000000000   -31.176914536   9.797958971
He -147.000000000   -25.980762114   9.797958971
H -147.000000000   -29.444863729   14.696938457
H -150.000000000   -24.248711306   14.696938457
He -150.000000000   -31.176914536   19.595917942
He -147.000000000   -25.980762114   19.595917942
H -147.000000000   -29.444863729   24.494897428
H -150.000000000   -24.248711306   24.494897428
He -150.000000000   -31.176914536   29.393876913
He -147.000000000   -25.980762114   29.393876913
H -147.000000000   -29.444863729   34.292856399
H -150.000000000   -24.248711306   34.292856399
He -150.000000000   -20.784609691   0.000000000
He -150.000000000   -20.784609691   9.797958971
He -150.000000000   -20.784609691   19.595917942
He -150.000000000   -20.784609691   29.393876913
He -141.000000000   -36.373066959   0.000000000
H -141.000000000   -39.837168574   4.898979486
H -144.000000000   -34.641016151   4.898979486
He -141.000000000   -36.373066959   9.797958971
H -141.000000000   -39.837168574   14.696938457
H -144.000000000   -34.641016151   14.696938457
He -141.000000000   -36.373066959   19.595917942
H -141.000000000   -39.837168574   24.494897428
H -144.000000000   -34.641016151   24.494897428
He -141.000000000   -36.373066959   29.393876913
H -141.000000000   -39.837168574   34.292856399
H -144.000000000   -34.641016151   34.292856399
He -144.000000000   -31.176914536   0.000000000
He -141.000000000   -25.980762114   0.000000000
H -141.000000000   -29.444863729   4.898979486
H -144.000000000   -24.248711306   4.898979486
He -144.000000000   -31.176914536   9.797958971
He -141.000000000   -25.980762114   9.797958971
H -141.000000000   -29.444863729   14.696938457
H -144.000000000   -24.248711306   14.696938457
He -144.000000000   -31.176914536   19.595917942
He -141.000000000   -25.980762114   19.595917942
H -141.000000000   -29.444863729   24.494897428
H -144.000000000   -24.248711306   24.494897428
He -144.000000000   -31.176914536   29.393876913
He -141.000000000   -25.980762114   29.393876913
H -141.000000000   -29.444863729   34.292856399
H -144.000000000   -24.248711306   34.292856399
He -144.000000000   -20.784609691   0.000000000
He -144.000000000   -20.784609691   9.797958971
He -144.000000000   -20.784609691   19.595917942
He -144.000000000   -20.784609691   29.393876913
He -135.000000000   -36.373066959   0.000000000
H -135.000000000   -39.837168574   4.898979486
H -138.000000000   -34.641016151   4.898979486
He -135.000000000   -36.373066959   9.797958971
H -135.000000000   -39.837168574   14.696938457
H -138.000000000   -34.641016151   14.696938457
He -135.000000000   -36.373066959   19.595917942
H -135.000000000   -39.837168574   24.494897428
H -138.000000000   -34.641016151   24.494897428
He -135.000000000   -36.373066959   29.393876913
H -135.000000000   -39.837168574   34.292856399
H -138.000000000   -34.641016151   34.292856399
He -138.000000000   -31.176914536   0.000000000
He -135.000000000   -25.980762114   0.000000000
H -135.000000000   -29.444863729   4.898979486
H -138.000000000   -24.248711306   4.898979486
He -138.000000000   -31.176914536   9.797958971
He -135.000000000   -25.980762114   9.797958971
H -135.000000000   -29.444863729   14.696938457
H -138.000000000   -24.248711306   14.696938457
He -138.000000000   -31.176914536   19.595917942
He -135.000000000   -25.980762114   19.595917942
H -135.000000000   -29.444863729   24.494897428
H -138.000000000   -24.248711306   24.494897428
He -138.000000000   -31.176914536   29.393876913
He -135.000000000   -25.980762114   29.393876913
H -135.000000000   -29.444863729   34.292856399
H -138.000000000   -24.248711306   34.292856399
He -138.000000000   -20.784609691   0.000000000
He -138.000000000   -20.784609691   9.797958971
He -138.000000000   -20.784609691   19.595917942
He -138.000000000   -20.784609691   29.393876913
He -129.000000000   -36.373066959   0.000000000
H -129.000000000   -39.837168574   4.898979486
H -132.000000000   -34.641016151   4.898979486
He -129.000000000   -36.373066959   9.797958971
H -129.000000000   -39.837168574   14.696938457
H -132.000000000   -34.641016151   14.696938457
He -129.000000000   -36.373066959   19.595917942
H -129.000000000   -39.837168574   24.494897428
H -132.000000000   -34.641016151   24.494897428
He -129.000000000   -36.373066959   29.393876913
H -129.000000000   -39.837168574   34.292856399
H -132.000000000   -34.641016151   34.292856399
He -132.000000000   -31.176914536   0.000000000
He -129.000000000   -25.980762114   0.000000000
H -129.000000000   -29.444863729   4.898979486
H -132.000000000   -24.248711306   4.898979486
He -132.000000000   -31.176914536   9.797958971
He -129.000000000   -25.980762114   9.797958971
H -129.000000000   -29.444863729   14.696938457
H -132.000000000   -24.248711306   14.696938457
He -132.000000000   -31.176914536   19.595917942
He -129.000000000   -25.980762114   19.595917942
H -129.000000000   -29.444863729   24.494897428
H -132.000000000   -24.248711306   24.494897428
He -132.000000000   -31.176914536   29.393876913
He -129.000000000   -25.980762114   29.393876913
H -129.000000000   -29.444863729   34.292856399
H -132.000000000   -24.248711306   34.292856399
He -132.000000000   -20.784609691   0.000000000
He -132.000000000   -20.784609691   9.797958971
He -132.000000000   -20.784609691   19.595917942
He -132.000000000   -20.784609691   29.393876913
He -123.000000000   -36.373066959   0.000000000
H -123.000000000   -39.837168574   4.898979486
H -126.000000000   -34.641016151   4.898979486
He -123.000000000   -36.373066959   9.797958971
H -123.000000000   -39.837168574   14.696938457
H -126.000000000   -34.641016151   14.696938457
He -123.000000000   -36.373066959   19.595917942
H -123.000000000   -39.837168574   24.494897428
H -126.000000000   -34.641016151   24.494897428
He -123.000000000   -36.373066959   29.393876913
H -123.000000000   -39.837168574   34.292856399
H -126.000000000   -34.641016151   34.292856399
He -126.000000000   -31.176914536   0.000000000
He -123.000000000   -25.980762114   0.000000000
H -123.000000000   -29.444863729   4.898979486
H -126.000000000   -24.248711306   4.898979486
He -126.000000000   -31.176914536   9.797958971
He -123.000000000   -25.980762114   9.797958971
H -123.000000000   -29.444863729   14.696938457
H -126.000000000   -24.248711306   14.696938457
He -126.000000000   -31.176914536   19.595917942
He -123.000000000   -25.980762114   19.595917942
H -123.000000000   -29.444863729   24.494897428
H -126.000000000   -24.248711306   24.494897428
He -126.000000000   -31.176914536   29.393876913
He -123.000000000   -25.980762114   29.393876913
H -123.000000000   -29.444863729   34.292856399
H -126.000000000   -24.248711306   34.292856399
He -126.000000000   -20.784609691   0.000000000
He -126.000000000   -20.784609691   9.797958971
He -126.000000000   -20.784609691   19.595917942
He -126.000000000   -20.784609691   29.393876913
He -117.000000000   -36.373066959   0.000000000
H -117.000000000   -39.837168574   4.898979486
H -120.000000000   -34.641016151   4.898979486
He -117.000000000   -36.373066959   9.797958971
H -117.000000000   -39.837168574   14.696938457
H -120.000000000   -34.641016151   14.696938457
He -117.000000000   -36.373066959   19.595917942
H -117.000000000   -39.837168574   24.494897428
H -120.000000000   -34.641016151   24.494897428
He -117.000000000   -36.373066959   29.393876913
H -117.000000000   -39.837168574   34.292856399
H -120.000000000   -34.641016151   34.292856399
He -120.000000000   -31.176914536   0.000000000
He -117.000000000   -25.980762114   0.000000000
H -117.000000000   -29.444863729   4.898979486
H -120.000000000   -24.248711306   4.898979486
He -120.000000000   -31.176914536   9.797958971
He -117.000000000   -25.980762114   9.797958971
H -117.000000000   -29.444863729   14.696938457
H -120.000000000   -24.248711306   14.696938457
He -120.000000000   -31.176914536   19.595917942
He -117.000000000   -25.980762114   19.595917942
H -117.000000000   -29.444863729   24.494897428
H -120.000000000   -24.248711306   24.494897428
He -120.000000000   -31.176914536   29.393876913
He -117.000000000   -25.980762114   29.393876913
H -117.000000000   -29.444863729   34.292856399
H -120.000000000   -24.248711306   34.292856399
He -120.000000000   -20.784609691   0.000000000
He -120.000000000   -20.784609691   9.797958971
He -120.000000000   -20.784609691   19.595917942
He -120.000000000   -20.784609691   29.393876913
He -111.000000000   -36.373066959   0.000000000
H -111.000000000   -39.837168574   4.898979486
H -114.000000000   -34.641016151   4.898979486
He -111.000000000   -36.373066959   9.797958971
H -111.000000000   -39.837168574   14.696938457
H -114.000000000   -34.641016151   14.696938457
He -111.000000000   -36.373066959   19.595917942
H -111.000000000   -39.837168574   24.494897428
H -114.000000000   -34.641016151   24.494897428
He -111.000000000   -36.373066959   29.393876913
H -111.000000000   -39.837168574   34.292856399
H -114.000000000   -34.641016151   34.292856399
He -114.000000000   -31.176914536   0.000000000
He -111.000000000   -25.980762114   0.000000000
H -111.000000000   -29.444863729   4.898979486
H -114.000000000   -24.248711306   4.898979486
He -114.000000000   -31.176914536   9.797958971
He -111.000000000   -25.980762114   9.797958971
H -111.000000000   -29.444863729   14.696938457
H -114.000000000   -24.248711306   14.696938457
He -114.000000000   -31.176914536   19.595917942
He -111.000000000   -25.980762114   19.595917942
H -111.000000000   -29.444863729   24.494897428
H -114.000000000   -24.248711306   24.494897428
He -114.000000000   -31.176914536   29.393876913
He -111.000000000   -25.980762114   29.393876913
H -111.000000000   -29.444863729   34.292856399
H -114.000000000   -24.248711306   34.292856399
He -114.000000000   -20.784609691   0.000000000
He -114.000000000   -20.784609691   9.797958971
He -114.000000000   -20.784609691   19.595917942
He -114.000000000   -20.784609691   29.393876913
He -105.000000000   -36.373066959   0.000000000
H -105.000000000   -39.837168574   4.898979486
H -108.000000000   -34.641016151   4.898979486
He -105.000000000   -36.373066959   9.797958971
H -105.000000000   -39.837168574   14.696938457
H -108.000000000   -34.641016151   14.696938457
He -105.000000000   -36.373066959   19.595917942
H -105.000000000   -39.837168574   24.494897428
H -108.000000000   -34.641016151   24.494897428
He -105.000000000   -36.373066959   29.393876913
H -105.000000000   -39.837168574   34.292856399
H -108.000000000   -34.641016151   34.292856399
He -108.000000000   -31.176914536   0.000000000
He -105.000000000   -25.980762114   0.000000000
H -105.000000000   -29.444863729   4.898979486
H -108.000000000   -24.248711306   4.898979486
He -108.000000000   -31.176914536   9.797958971
He -105.000000000   -25.980762114   9.797958971
H -105.000000000   -29.444863729   14.696938457
H -108.000000000   -24.248711306   14.696938457
He -108.000000000   -31.176914536   19.595917942
He -105.000000000   -25.980762114   19.595917942
H -105.000000000   -29.444863729   24.494897428
H -108.000000000   -24.248711306   24.494897428
He -108.000000000   -31.176914536   29.393876913
He -105.000000000   -25.980762114   29.393876913
H -105.000000000   -29.444863729   34.292856399
H -108.000000000   -24.248711306   34.292856399
He -108.000000000   -20.784609691   0.000000000
He -108.000000000   -20.784609691   9.797958971
He -108.000000000   -20.784609691   19.595917942
He -108.000000000   -20.784609691   29.393876913
He -99.000000000   -36.373066959   0.000000000
H -99.000000000   -39.837168574   4.898979486
H -102.000000000   -34.641016151   4.898979486
He -99.000000000   -36.373066959   9.797958971
H -99.000000000   -39.837168574   14.696938457
H -102.000000000   -34.641016151   14.696938457
He -99.000000000   -36.373066959   19.595917942
H -99.000000000   -39.837168574   24.494897428
H -102.000000000   -34.641016151   24.494897428
He -99.000000000   -36.373066959   29.393876913
H -99.000000000   -39.837168574   34.292856399
H -102.000000000   -34.641016151   34.292856399
He -102.000000000   -31.176914536   0.000000000
He -99.000000000   -25.980762114   0.000000000
H -99.000000000   -29.444863729   4.898979486
H -102.000000000   -24.248711306   4.898979486
He -102.000000000   -31.176914536   9.797958971
He -99.000000000   -25.980762114   9.797958971
H -99.000000000   -29.444863729   14.696938457
H -102.000000000   -24.248711306   14.696938457
He -102.000000000   -31.176914536   19.595917942
He -99.000000000   -25.980762114   19.595917942
H -99.000000000   -29.444863729   24.494897428
H -102.000000000   -24.248711306   24.494897428
He -102.000000000   -31.176914536   29.393876913
He -99.000000000   -25.980762114   29.393876913
H -99.000000000   -29.444863729   34.292856399
H -102.000000000   -24.248711306   34.292856399
He -102.000000000   -20.784609691   0.000000000
He -102.000000000   -20.784609691   9.797958971
He -102.000000000   -20.784609691   19.595917942
He -102.000000000   -20.784609691   29.393876913
He -93.000000000   -36.373066959   0.000000000
H -93.000000000   -39.837168574   4.898979486
H -96.000000000   -34.641016151   4.898979486
He -93.000000000   -36.373066959   9.797958971
H -93.000000000   -39.837168574   14.696938457
H -96.000000000   -34.641016151   14.696938457
He -93.000000000   -36.373066959   19.595917942
H -93.000000000   -39.837168574   24.494897428
H -96.000000000   -34.641016151   24.494897428
He -93.000000000   -36.373066959   29.393876913
H -93.000000000   -39.837168574   34.292856399
H -96.000000000   -34.641016151   34.292856399
He -96.000000000   -31.176914536   0.000000000
He -93.000000000   -25.980762114   0.000000000
H -93.000000000   -29.444863729   4.898979486
H -96.000000000   -24.248711306   4.898979486
He -96.000000000   -31.176914536   9.797958971
He -93.000000000   -25.980762114   9.797958971
H -93.000000000   -29.444863729   14.696938457
H -96.000000000   -24.248711306   14.696938457
He -96.000000000   -31.176914536   19.595917942
He -93.000000000   -25.980762114   19.595917942
H -93.000000000   -29.444863729   24.494897428
H -96.000000000   -24.248711306   24.494897428
He -96.000000000   -31.176914536   29.393876913
He -93.000000000   -25.980762114   29.393876913
H -93.000000000   -29.444863729   34.292856399
H -96.000000000   -24.248711306   34.292856399
He -96.000000000   -20.784609691   0.000000000
He -96.000000000   -20.784609691   9.797958971
He -96.000000000   -20.784609691   19.595917942
He -96.000000000   -20.784609691   29.393876913
He -87.000000000   -36.373066959   0.000000000
H -87.000000000   -39.837168574   4.898979486
H -90.000000000   -34.641016151   4.898979486
He -87.000000000   -36.373066959   9.797958971
H -87.000000000   -39.837168574   14.696938457
H -90.000000000   -34.641016151   14.696938457
He -87.000000000   -36.373066959   19.595917942
H -87.000000000   -39.837168574   24.494897428
H -90.000000000   -34.641016151   24.494897428
He -87.000000000   -36.373066959   29.393876913
H -87.000000000   -39.837168574   34.292856399
H -90.000000000   -34.641016151   34.292856399
He -90.000000000   -31.176914536   0.000000000
He -87.000000000   -25.980762114   0.000000000
H -87.000000000   -29.444863729   4.898979486
H -90.000000000   -24.248711306   4.898979486
He -90.000000000   -31.176914536   9.797958971
He -87.000000000   -25.980762114   9.797958971
H -87.000000000   -29.444863729   14.696938457
H -90.000000000   -24.248711306   14.696938457
He -90.000000000   -31.176914536   19.595917942
He -87.000000000   -25.980762114   19.595917942
H -87.000000000   -29.444863729   24.494897428
H -90.000000000   -24.248711306   24.494897428
He -90.000000000   -31.176914536   29.393876913
He -87.000000000   -25.980762114   29.393876913
H -87.000000000   -29.444863729   34.292856399
H -90.000000000   -24.248711306   34.292856399
He -90.000000000   -20.784609691   0.000000000
He -90.000000000   -20.784609691   9.797958971
He -90.000000000   -20.784609691   19.595917942
He -90.000000000   -20.784609691   29.393876913
He -81.000000000   -36.373066959   0.000000000
H -81.000000000   -39.837168574   4.898979486
H -84.000000000   -34.641016151   4.898979486
He -81.000000000   -36.373066959   9.797958971
H -81.000000000   -39.837168574   14.696938457
H -84.000000000   -34.641016151   14.696938457
He -81.000000000   -36.373066959   19.595917942
H -81.000000000   -39.837168574   24.494897428
H -84.000000000   -34.641016151   24.494897428
He -81.000000000   -36.373066959   29.393876913
H -81.000000000   -39.837168574   34.292856399
H -84.000000000   -34.641016151   34.292856399
He -84.000000000   -31.176914536   0.000000000
He -81.000000000   -25.980762114   0.000000000
H -81.000000000   -29.444863729   4.898979486
H -84.000000000   -24.248711306   4.898979486
He -84.000000000   -31.176914536   9.797958971
He -81.000000000   -25.980762114   9.797958971
H -81.000000000   -29.444863729   14.696938457
H -84.000000000   -24.248711306   14.696938457
He -84.000000000   -31.176914536   19.595917942
He -81.000000000   -25.980762114   19.595917942
H -81.000000000   -29.444863729   24.494897428
H -84.000000000   -24.248711306   24.494897428
He -84.000000000   -31.176914536   29.393876913
He -81.000000000   -25.980762114   29.393876913
H -81.000000000   -29.444863729   34.292856399
H -84.000000000   -24.248711306   34.292856399
He -84.000000000   -20.784609691   0.000000000
He -84.000000000   -20.784609691   9.797958971
He -84.000000000   -20.784609691   19.595917942
He -84.000000000   -20.784609691   29.393876913
He -75.000000000   -36.373066959   0.000000000
H -75.000000000   -39.837168574   4.898979486
H -78.000000000   -34.641016151   4.898979486
He -75.000000000   -36.373066959   9.797958971
H -75.000000000   -39.837168574   14.696938457
H -78.000000000   -34.641016151   14.696938457
He -75.000000000   -36.373066959   19.595917942
H -75.000000000   -39.837168574   24.494897428
H -78.000000000   -34.641016151   24.494897428
He -75.000000000   -36.373066959   29.393876913
H -75.000000000   -39.837168574   34.292856399
H -78.000000000   -34.641016151   34.292856399
He -78.000000000   -31.176914536   0.000000000
He -75.000000000   -25.980762114   0.000000000
H -75.000000000   -29.444863729   4.898979486
H -78.000000000   -24.248711306   4.898979486
He -78.000000000   -31.176914536   9.797958971
He -75.000000000   -25.980762114   9.797958971
H -75.000000000   -29.444863729   14.696938457
H -78.000000000   -24.248711306   14.696938457
He -78.000000000   -31.176914536   19.595917942
He -75.000000000   -25.980762114   19.595917942
H -75.000000000   -29.444863729   24.494897428
H -78.000000000   -24.248711306   24.494897428
He -78.000000000   -31.176914536   29.393876913
He -75.000000000   -25.980762114   29.393876913
H -75.000000000   -29.444863729   34.292856399
H -78.000000000   -24.248711306   34.292856399
He -78.000000000   -20.784609691   0.000000000
He -78.000000000   -20.784609691   9.797958971
He -78.000000000   -20.784609691   19.595917942
He -78.000000000   -20.784609691   29.393876913
He -69.000000000   -36.373066959   0.000000000
H -69.000000000   -39.837168574   4.898979486
H -72.000000000   -34.641016151   4.898979486
He -69.000000000   -36.373066959   9.797958971
H -69.000000000   -39.837168574   14.696938457
H -72.000000000   -34.641016151   14.696938457
He -69.000000000   -36.373066959   19.595917942
H -69.000000000   -39.837168574   24.494897428
H -72.000000000   -34.641016151   24.494897428
He -69.000000000   -36.373066959   29.393876913
H -69.000000000   -39.837168574   34.292856399
H -72.000000000   -34.641016151   34.292856399
He -72.000000000   -31.176914536   0.000000000
He -69.000000000   -25.980762114   0.000000000
H -69.000000000   -29.444863729   4.898979486
H -72.000000000   -24.248711306   4.898979486
He -72.000000000   -31.176914536   9.797958971
He -69.000000000   -25.980762114   9.797958971
H -69.000000000   -29.444863729   14.696938457
H -72.000000000   -24.248711306   14.696938457
He -72.000000000   -31.176914536   19.595917942
He -69.000000000   -25.980762114   19.595917942
H -69.000000000   -29.444863729   24.494897428
H -72.000000000   -24.248711306   24.494897428
He -72.000000000   -31.176914536   29.393876913
He -69.000000000   -25.980762114   29.393876913
H -69.000000000   -29.444863729   34.292856399
H -72.000000000   -24.248711306   34.292856399
He -72.000000000   -20.784609691   0.000000000
He -72.000000000   -20.784609691   9.797958971
He -72.000000000   -20.784609691   19.595917942
He -72.000000000   -20.784609691   29.393876913
He -63.000000000   -36.373066959   0.000000000
H -63.000000000   -39.837168574   4.898979486
H -66.000000000   -34.641016151   4.898979486
He -63.000000000   -36.373066959   9.797958971
H -63.000000000   -39.837168574   14.696938457
H -66.000000000   -34.641016151   14.696938457
He -63.000000000   -36.373066959   19.595917942
H -63.000000000   -39.837168574   24.494897428
H -66.000000000   -34.641016151   24.494897428
He -63.000000000   -36.373066959   29.393876913
H -63.000000000   -39.837168574   34.292856399
H -66.000000000   -34.641016151   34.292856399
He -66.000000000   -31.176914536   0.000000000
He -63.000000000   -25.980762114   0.000000000
H -63.000000000   -29.444863729   4.898979486
H -66.000000000   -24.248711306   4.898979486
He -66.000000000   -31.176914536   9.797958971
He -63.000000000   -25.980762114   9.797958971
H -63.000000000   -29.444863729   14.696938457
H -66.000000000   -24.248711306   14.696938457
He -66.000000000   -31.176914536   19.595917942
He -63.000000000   -25.980762114   19.595917942
H -63.000000000   -29.444863729   24.494897428
H -66.000000000   -24.248711306   24.494897428
He -66.000000000   -31.176914536   29.393876913
He -63.000000000   -25.980762114   29.393876913
H -63.000000000   -29.444863729   34.292856399
H -66.000000000   -24.248711306   34.292856399
He -66.000000000   -20.784609691   0.000000000
He -66.000000000   -20.784609691   9.797958971
He -66.000000000   -20.784609691   19.595917942
He -66.000000000   -20.784609691   29.393876913
He -57.000000000   -36.373066959   0.000000000
H -57.000000000   -39.837168574   4.898979486
H -60.000000000   -34.641016151   4.898979486
He -57.000000000   -36.373066959   9.797958971
H -57.000000000   -39.837168574   14.696938457
H -60.000000000   -34.641016151   14.696938457
He -57.000000000   -36.373066959   19.595917942
H -57.000000000   -39.837168574   24.494897428
H -60.000000000   -34.641016151   24.494897428
He -57.000000000   -36.373066959   29.393876913
H -57.000000000   -39.837168574   34.292856399
H -60.000000000   -34.641016151   34.292856399
He -60.000000000   -31.176914536   0.000000000
He -57.000000000   -25.980762114   0.000000000
H -57.000000000   -29.444863729   4.898979486
H -60.000000000   -24.248711306   4.898979486
He -60.000000000   -31.176914536   9.797958971
He -57.000000000   -25.980762114   9.797958971
H -57.000000000   -29.444863729   14.696938457
H -60.000000000   -24.248711306   14.696938457
He -60.000000000   -31.176914536   19.595917942
He -57.000000000   -25.980762114   19.595917942
H -57.000000000   -29.444863729   24.494897428
H -60.000000000   -24.248711306   24.494897428
He -60.000000000   -31.176914536   29.393876913
He -57.000000000   -25.980762114   29.393876913
H -57.000000000   -29.444863729   34.292856399
H -60.000000000   -24.248711306   34.292856399
He -60.000000000   -20.784609691   0.000000000
He -60.000000000   -20.784609691   9.797958971
He -60.000000000   -20.784609691   19.595917942
He -60.000000000   -20.784609691   29.393876913
He -51.000000000   -36.373066959   0.000000000
H -51.000000000   -39.837168574   4.898979486
H -54.000000000   -34.641016151   4.898979486
He -51.000000000   -36.373066959   9.797958971
H -51.000000000   -39.837168574   14.696938457
H -54.000000000   -34.641016151   14.696938457
He -51.000000000   -36.373066959   19.595917942
H -51.000000000   -39.837168574   24.494897428
H -54.000000000   -34.641016151   24.494897428
He -51.000000000   -36.373066959   29.393876913
H -51.000000000   -39.837168574   34.292856399
H -54.000000000   -34.641016151   34.292856399
He -54.000000000   -31.176914536   0.000000000
He -51.000000000   -25.980762114   0.000000000
H -51.000000000   -29.444863729   4.898979486
H -54.000000000   -24.248711306   4.898979486
He -54.000000000   -31.176914536   9.797958971
He -51.000000000   -25.980762114   9.797958971
H -51.000000000   -29.444863729   14.696938457
H -54.000000000   -24.248711306   14.696938457
He -54.000000000   -31.176914536   19.595917942
He -51.000000000   -25.980762114   19.595917942
H -51.000000000   -29.444863729   24.494897428
H -54.000000000   -24.248711306   24.494897428
He -54.000000000   -31.176914536   29.393876913
He -51.000000000   -25.980762114   29.393876913
H -51.000000000   -29.444863729   34.292856399
H -54.000000000   -24.248711306   34.292856399
He -54.000000000   -20.784609691   0.000000000
He -54.000000000   -20.784609691   9.797958971
He -54.000000000   -20.784609691   19.595917942
He -54.000000000   -20.784609691   29.393876913
He -45.000000000   -36.373066959   0.000000000
H -45.000000000   -39.837168574   4.898979486
H -48.000000000   -34.641016151   4.898979486
He -45.000000000   -36.373066959   9.797958971
H -45.000000000   -39.837168574   14.696938457
H -48.000000000   -34.641016151   14.696938457
He -45.000000000   -36.373066959   19.595917942
H -45.000000000   -39.837168574   24.494897428
H -48.000000000   -34.641016151   24.494897428
He -45.000000000   -36.373066959   29.393876913
H -45.000000000   -39.837168574   34.292856399
H -48.000000000   -34.641016151   34.292856399
He -48.000000000   -31.176914536   0.000000000
He -45.000000000   -25.980762114   0.000000000
H -45.000000000   -29.444863729   4.898979486
H -48.000000000   -24.248711306   4.898979486
He -48.000000000   -31.176914536   9.797958971
He -45.000000000   -25.980762114   9.797958971
H -45.000000000   -29.444863729   14.696938457
H -48.000000000   -24.248711306   14.696938457
He -48.000000000   -31.176914536   19.595917942
He -45.000000000   -25.980762114   19.595917942
H -45.000000000   -29.444863729   24.494897428
H -48.000000000   -24.248711306   24.494897428
He -48.000000000   -31.176914536   29.393876913
He -45.000000000   -25.980762114   29.393876913
H -45.000000000   -29.444863729   34.292856399
H -48.000000000   -24.248711306   34.292856399
He -48.000000000   -20.784609691   0.000000000
He -48.000000000   -20.784609691   9.797958971
He -48.000000000   -20.784609691   19.595917942
He -48.000000000   -20.784609691   29.393876913
He -39.000000000   -36.373066959   0.000000000
H -39.000000000   -39.837168574   4.898979486
H -42.000000000   -34.641016151   4.898979486
He -39.000000000   -36.373066959   9.797958971
H -39.000000000   -39.837168574   14.696938457
H -42.000000000   -34.641016151   14.696938457
He -39.000000000   -36.373066959   19.595917942
H -39.000000000   -39.837168574   24.494897428
H -42.000000000   -34.641016151   24.494897428
He -39.000000000   -36.373066959   29.393876913
H -39.000000000   -39.837168574   34.292856399
H -42.000000000   -34.641016151   34.292856399
He -42.000000000   -31.176914536   0.000000000
He -39.000000000   -25.980762114   0.000000000
H -39.000000000   -29.444863729   4.898979486
H -42.000000000   -24.248711306   4.898979486
He -42.000000000   -31.176914536   9.797958971
He -39.000000000   -25.980762114   9.797958971
H -39.000000000   -29.444863729   14.696938457
H -42.000000000   -24.248711306   14.696938457
He -42.000000000   -31.176914536   19.595917942
He -39.000000000   -25.980762114   19.595917942
H -39.000000000   -29.444863729   24.494897428
H -42.000000000   -24.248711306   24.494897428
He -42.000000000   -31.176914536   29.393876913
He -39.000000000   -25.980762114   29.393876913
H -39.000000000   -29.444863729   34.292856399
H -42.000000000   -24.248711306   34.292856399
He -42.000000000   -20.784609691   0.000000000
He -42.000000000   -20.784609691   9.797958971
He -42.000000000   -20.784609691   19.595917942
He -42.000000000   -20.784609691   29.393876913
He -33.000000000   -36.373066959   0.000000000
H -33.000000000   -39.837168574   4.898979486
H -36.000000000   -34.641016151   4.898979486
He -33.000000000   -36.373066959   9.797958971
H -33.000000000   -39.837168574   14.696938457
H -36.000000000   -34.641016151   14.696938457
He -33.000000000   -36.373066959   19.595917942
H -33.000000000   -39.837168574   24.494897428
H -36.000000000   -34.641016151   24.494897428
He -33.000000000   -36.373066959   29.393876913
H -33.000000000   -39.837168574   34.292856399
H -36.000000000   -34.641016151   34.292856399
He -36.000000000   -31.176914536   0.000000000
He -33.000000000   -25.980762114   0.000000000
H -33.000000000   -29.444863729   4.898979486
H -36.000000000   -24.248711306   4.898979486
He -36.000000000   -31.176914536   9.797958971
He -33.000000000   -25.980762114   9.797958971
H -33.000000000   -29.444863729   14.696938457
H -36.000000000   -24.248711306   14.696938457
He -36.000000000   -31.176914536   19.595917942
He -33.000000000   -25.980762114   19.595917942
H -33.000000000   -29.444863729   24.494897428
H -36.000000000   -24.248711306   24.494897428
He -36.000000000   -31.176914536   29.393876913
He -33.000000000   -25.980762114   29.393876913
H -33.000000000   -29.444863729   34.292856399
H -36.000000000   -24.248711306   34.292856399
He -36.000000000   -20.784609691   0.000000000
He -36.000000000   -20.784609691   9.797958971
He -36.000000000   -20.784609691   19.595917942
He -36.000000000   -20.784609691   29.393876913
He -27.000000000   -36.373066959   0.000000000
H -27.000000000   -39.837168574   4.898979486
H -30.000000000   -34.641016151   4.898979486
He -27.000000000   -36.373066959   9.797958971
H -27.000000000   -39.837168574   14.696938457
H -30.000000000   -34.641016151   14.696938457
He -27.000000000   -36.373066959   19.595917942
H -27.000000000   -39.837168574   24.494897428
H -30.000000000   -34.641016151   24.494897428
He -27.000000000   -36.373066959   29.393876913
H -27.000000000   -39.837168574   34.292856399
H -30.000000000   -34.641016151   34.292856399
He -30.000000000   -31.176914536   0.000000000
He -27.000000000   -25.980762114   0.000000000
H -27.000000000   -29.444863729   4.898979486
H -30.000000000   -24.248711306   4.898979486
He -30.000000000   -31.176914536   9.797958971
He -27.000000000   -25.980762114   9.797958971
H -27.000000000   -29.444863729   14.696938457
H -30.000000000   -24.248711306   14.696938457
He -30.000000000   -31.176914536   19.595917942
He -27.000000000   -25.980762114   19.595917942
H -27.000000000   -29.444863729   24.494897428
H -30.000000000   -24.248711306   24.494897428
He -30.000000000   -31.176914536   29.393876913
He -27.000000000   -25.980762114   29.393876913
H -27.000000000   -29.444863729   34.292856399
H -30.000000000   -24.248711306   34.292856399
He -30.000000000   -20.784609691   0.000000000
He -30.000000000   -20.784609691   9.797958971
He -30.000000000   -20.784609691   19.595917942
He -30.000000000   -20.784609691   29.393876913
H -33.000000000   -60.000000000   3.000000000
H -33.000000000   -57.000000000   0.000000000
H -33.000000000   -60.000000000   9.000000000
H -33.000000000   -57.000000000   6.000000000
H -33.000000000   -60.000000000   15.000000000
H -33.000000000   -57.000000000   12.000000000
H -33.000000000   -60.000000000   21.000000000
H -33.000000000   -57.000000000   18.000000000
H -33.000000000   -60.000000000   27.000000000
H -33.000000000   -57.000000000   24.000000000
H -33.000000000   -60.000000000   33.000000000
H -33.000000000   -57.000000000   30.000000000
H -33.000000000   -60.000000000   39.000000000
H -33.000000000   -57.000000000   36.000000000
H -33.000000000   -54.000000000   3.000000000
H -33.000000000   -51.000000000   0.000000000
H -33.000000000   -54.000000000   9.000000000
H -33.000000000   -51.000000000   6.000000000
H -33.000000000   -54.000000000   15.000000000
H -33.000000000   -51.000000000   12.000000000
H -33.000000000   -54.000000000   21.000000000
H -33.000000000   -51.000000000   18.000000000
H -33.000000000   -54.000000000   27.000000000
H -33.000000000   -51.000000000   24.000000000
H -33.000000000   -54.000000000   33.000000000
H -33.000000000   -51.000000000   30.000000000
H -33.000000000   -54.000000000   39.000000000
H -33.000000000   -51.000000000   36.000000000
H -33.000000000   -48.000000000   3.000000000
H -33.000000000   -45.000000000   0.000000000
H -33.000000000   -48.000000000   9.000000000
H -33.000000000   -45.000000000   6.000000000
H -33.000000000   -48.000000000   15.000000000
H -33.000000000   -45.000000000   12.000000000
H -33.000000000   -48.000000000   21.000000000
H -33.000000000   -45.000000000   18.000000000
H -33.000000000   -48.000000000   27.000000000
H -33.000000000   -45.000000000   24.000000000
H -33.000000000   -48.000000000   33.000000000
H -33.000000000   -45.000000000   30.000000000
H -33.000000000   -48.000000000   39.000000000
H -33.000000000   -45.000000000   36.000000000
H -33.000000000   -42.000000000   3.000000000
H -33.000000000   -42.000000000   9.000000000
H -33.000000000   -42.000000000   15.000000000
H -33.000000000   -42.000000000   21.000000000
H -33.000000000   -42.000000000   27.000000000
H -33.000000000   -42.000000000   33.000000000
H -33.000000000   -42.000000000   39.000000000
H -33.000000000   -18.000000000   3.000000000
H -33.000000000   -15.000000000   0.000000000
H -33.000000000   -18.000000000   9.000000000
H -33.000000000   -15.000000000   6.000000000
H -33.000000000   -18.000000000   15.000000000
H -33.000000000   -15.000000000   12.000000000
H -33.000000000   -18.000000000   21.000000000
H -33.000000000   -15.000000000   18.000000000
H -33.000000000   -18.000000000   27.000000000
H -33.000000000   -15.000000000   24.000000000
H -33.000000000   -18.000000000   33.000000000
H -33.000000000   -15.000000000   30.000000000
H -33.000000000   -18.000000000   39.000000000
H -33.000000000   -15.000000000   36.000000000
H -33.000000000   -12.000000000   3.000000000
H -33.000000000   -12.000000000   9.000000000
H -33.000000000   -12.000000000   15.000000000
H -33.000000000   -12.000000000   21.000000000
H -33.000000000   -12.000000000   27.000000000
H -33.000000000   -12.000000000   33.000000000
H -33.000000000   -12.000000000   39.000000000
C -30.000000000   -60.000000000   0.000000000
H -30.000000000   -57.000000000   3.000000000
H -27.000000000   -60.000000000   3.000000000
H -27.000000000   -57.000000000   0.000000000
C -30.000000000   -60.000000000   6.000000000
H -30.000000000   -57.000000000   9.000000000
H -27.000000000   -60.000000000   9.000000000
H -27.000000000   -57.000000000   6.000000000
C -30.000000000   -60.000000000   12.000000000
H -30.000000000   -57.000000000   15.000000000
H -27.000000000   -60.000000000   15.000000000
H -27.000000000   -57.000000000   12.000000000
C -30.000000000   -60.000000000   18.000000000
H -30.000000000   -57.000000000   21.000000000
H -27.000000000   -60.000000000   21.000000000
H -27.000000000   -57.000000000   18.000000000
C -30.000000000   -60.000000000   24.000000000
H -30.000000000   -57.000000000   27.000000000
H -27.000000000   -60.000000000   27.000000000
H -27.000000000   -57.000000000   24.000000000
C -30.000000000   -60.000000000   30.000000000
H -30.000000000   -57.000000000   33.000000000
H -27.000000000   -60.000000000   33.000000000
H -27.000000000   -57.000000000   30.000000000
C -30.000000000   -60.000000000   36.000000000
H -30.000000000   -57.000000000   39.000000000
H -27.000000000   -60.000000000   39.000000000
H -27.000000000   -57.000000000   36.000000000
C -30.000000000   -54.000000000   0.000000000
H -30.000000000   -51.000000000   3.000000000
H -27.000000000   -54.000000000   3.000000000
H -27.000000000   -51.000000000   0.000000000
C -30.000000000   -54.000000000   6.000000000
H -30.000000000   -51.000000000   9.000000000
H -27.000000000   -54.000000000   9.000000000
H -27.000000000   -51.000000000   6.000000000
C -30.000000000   -54.000000000   12.000000000
H -30.000000000   -51.000000000   15.000000000
H -27.000000000   -54.000000000   15.000000000
H -27.000000000   -51.000000000   12.000000000
C -30.000000000   -54.000000000   18.000000000
H -30.000000000   -51.000000000   21.000000000
H -27.000000000   -54.000000000   21.000000000
H -27.000000000   -51.000000000   18.000000000
C -30.000000000   -54.000000000   24.000000000
H -30.000000000   -51.000000000   27.000000000
H -27.000000000   -54.000000000   27.000000000
H -27.000000000   -51.000000000   24.000000000
C -30.000000000   -54.000000000   30.000000000
H -30.000000000   -51.000000000   33.000000000
H -27.000000000   -54.000000000   33.000000000
H -27.000000000   -51.000000000   30.000000000
C -30.000000000   -54.000000000   36.000000000
H -30.000000000   -51.000000000   39.000000000
H -27.000000000   -54.000000000   39.000000000
H -27.000000000   -51.000000000   36.000000000
C -30.000000000   -48.000000000   0.000000000
H -30.000000000   -45.000000000   3.000000000
H -27.000000000   -48.000000000   3.000000000
H -27.000000000   -45.000000000   0.000000000
C -30.000000000   -48.000000000   6.000000000
H -30.000000000   -45.000000000   9.000000000
H -27.000000000   -48.000000000   9.000000000
H -27.000000000   -45.000000000   6.000000000
C -30.000000000   -48.000000000   12.000000000
H -30.000000000   -45.000000000   15.000000000
H -27.000000000   -48.000000000   15.000000000
H -27.000000000   -45.000000000   12.000000000
C -30.000000000   -48.000000000   18.000000000
H -30.000000000   -45.000000000   21.000000000
H -27.000000000   -48.000000000   21.000000000
H -27.000000000   -45.000000000   18.000000000
C -30.000000000   -48.000000000   24.000000000
H -30.000000000   -45.000000000   27.000000000
H -27.000000000   -48.000000000   27.000000000
H -27.000000000   -45.000000000   24.000000000
C -30.000000000   -48.000000000   30.000000000
H -30.000000000   -45.000000000   33.000000000
H -27.000000000   -48.000000000   33.000000000
H -27.000000000   -45.000000000   30.000000000
C -30.000000000   -48.000000000   36.000000000
H -30.000000000   -45.000000000   39.000000000
H -27.000000000   -48.000000000   39.000000000
H -27.000000000   -45.000000000   36.000000000
C -30.000000000   -42.000000000   0.000000000
H -27.000000000   -42.000000000   3.000000000
C -30.000000000   -42.000000000   6.000000000
H -27.000000000   -42.000000000   9.000000000
C -30.000000000   -42.000000000   12.000000000
H -27.000000000   -42.000000000   15.000000000
C -30.000000000   -42.000000000   18.000000000
H -27.000000000   -42.000000000   21.000000000
C -30.000000000   -42.000000000   24.000000000
H -27.000000000   -42.000000000   27.000000000
C -30.000000000   -42.000000000   30.000000000
H -27.000000000   -42.000000000   33.000000000
C -30.000000000   -42.000000000   36.000000000
H -27.000000000   -42.000000000   39.000000000
C -30.000000000   -18.000000000   0.000000000
H -30.000000000   -15.000000000   3.000000000
H -27.000000000   -18.000000000   3.000000000
H -27.000000000   -15.000000000   0.000000000
C -30.000000000   -18.000000000   6.000000000
H -30.000000000   -15.000000000   9.000000000
H -27.000000000   -18.000000000   9.000000000
H -27.000000000   -15.000000000   6.000000000
C -30.000000000   -18.000000000   12.000000000
H -30.000000000   -15.000000000   15.000000000
H -27.000000000   -18.000000000   15.000000000
H -27.000000000   -15.000000000   12.000000000
C -30.000000000   -18.000000000   18.000000000
H -30.000000000   -15.000000000   21.000000000
H -27.000000000   -18.000000000   21.000000000
H -27.000000000   -15.000000000   18.000000000
C -30.000000000   -18.000000000   24.000000000
H -30.000000000   -15.000000000   27.000000000
H -27.000000000   -18.000000000   27.000000000
H -27.000000000   -15.000000000   24.000000000
C -30.000000000   -18.000000000   30.000000000
H -30.000000000   -15.000000000   33.000000000
H -27.000000000   -18.000000000   33.000000000
H -27.000000000   -15.000000000   30.000000000
C -30.000000000   -18.000000000   36.000000000
H -30.000000000   -15.000000000   39.000000000
H -27.000000000   -18.000000000   39.000000000
H -27.000000000   -15.000000000   36.000000000
C -30.000000000   -12.000000000   0.000000000
H -27.000000000   -12.000000000   3.000000000
C -30.000000000   -12.000000000   6.000000000
H -27.000000000   -12.000000000   9.000000000
C -30.000000000   -12.000000000   12.000000000
H -27.000000000   -12.000000000   15.000000000
C -30.000000000   -12.000000000   18.000000000
H -27.000000000   -12.000000000   21.000000000
C -30.000000000   -12.000000000   24.000000000
H -27.000000000   -12.000000000   27.000000000
C -30.000000000   -12.000000000   30.000000000
H -27.000000000   -12.000000000   33.000000000
C -30.000000000   -12.000000000   36.000000000
H -27.000000000   -12.000000000   39.000000000
C -24.000000000   -60.000000000   0.000000000
H -24.000000000   -57.000000000   3.000000000
H -21.000000000   -60.000000000   3.000000000
H -21.000000000   -57.000000000   0.000000000
C -24.000000000   -60.000000000   6.000000000
H -24.000000000   -57.000000000   9.000000000
H -21.000000000   -60.000000000   9.000000000
H -21.000000000   -57.000000000   6.000000000
C -24.000000000   -60.000000000   12.000000000
H -24.000000000   -57.000000000   15.000000000
H -21.000000000   -60.000000000   15.000000000
H -21.000000000   -57.000000000   12.000000000
C -24.000000000   -60.000000000   18.000000000
H -24.000000000   -57.000000000   21.000000000
H -21.000000000   -60.000000000   21.000000000
H -21.000000000   -57.000000000   18.000000000
C -24.000000000   -60.000000000   24.000000000
H -24.000000000   -57.000000000   27.000000000
H -21.000000000   -60.000000000   27.000000000
H -21.000000000   -57.000000000   24.000000000
C -24.000000000   -60.000000000   30.000000000
H -24.000000000   -57.000000000   33.000000000
H -21.000000000   -60.000000000   33.000000000
H -21.000000000   -57.000000000   30.000000000
C -24.000000000   -60.000000000   36.000000000
H -24.000000000   -57.000000000   39.000000000
H -21.000000000   -60.000000000   39.000000000
H -21.000000000   -57.000000000   36.000000000
C -24.000000000   -54.000000000   0.000000000
H -24.000000000   -51.000000000   3.000000000
H -21.000000000   -54.000000000   3.000000000
H -21.000000000   -51.000000000   0.000000000
C -24.000000000   -54.000000000   6.000000000
H -24.000000000   -51.000000000   9.000000000
H -21.000000000   -54.000000000   9.000000000
H -21.000000000   -51.000000000   6.000000000
C -24.000000000   -54.000000000   12.000000000
H -24.000000000   -51.000000000   15.000000000
H -21.000000000   -54.000000000   15.000000000
H -21.000000000   -51.000000000   12.000000000
C -24.000000000   -54.000000000   18.000000000
H -24.000000000   -51.000000000   21.000000000
H -21.000000000   -54.000000000   21.000000000
H -21.000000000   -51.000000000   18.000000000
C -24.000000000   -54.000000000   24.000000000
H -24.000000000   -51.000000000   27.000000000
H -21.000000000   -54.000000000   27.000000000
H -21.000000000   -51.000000000   24.000000000
C -24.000000000   -54.000000000   30.000000000
H -24.000000000   -51.000000000   33.000000000
H -21.000000000   -54.000000000   33.000000000
H -21.000000000   -51.000000000   30.000000000
C -24.000000000   -54.000000000   36.000000000
H -24.000000000   -51.000000000   39.000000000
H -21.000000000   -54.000000000   39.000000000
H -21.000000000   -51.000000000   36.000000000
C -24.000000000   -48.000000000   0.000000000
H -24.000000000   -45.000000000   3.000000000
H -21.000000000   -48.000000000   3.000000000
H -21.000000000   -45.000000000   0.000000000
C -24.000000000   -48.000000000   6.000000000
H -24.000000000   -45.000000000   9.000000000
H -21.000000000   -48.000000000   9.000000000
H -21.000000000   -45.000000000   6.000000000
C -24.000000000   -48.000000000   12.000000000
H -24.000000000   -45.000000000   15.000000000
H -21.000000000   -48.000000000   15.000000000
H -21.000000000   -45.000000000   12.000000000
C -24.000000000   -48.000000000   18.000000000
H -24.000000000   -45.000000000   21.000000000
H -21.000000000   -48.000000000   21.000000000
H -21.000000000   -45.000000000   18.000000000
C -24.000000000   -48.000000000   24.000000000
H -24.000000000   -45.000000000   27.000000000
H -21.000000000   -48.000000000   27.000000000
H -21.000000000   -45.000000000   24.000000000
C -24.000000000   -48.000000000   30.000000000
H -24.000000000   -45.000000000   33.000000000
H -21.000000000   -48.000000000   33.000000000
H -21.000000000   -45.000000000   30.000000000
C -24.000000000   -48.000000000   36.000000000
H -24.000000000   -45.000000000   39.000000000
H -21.000000000   -48.000000000   39.000000000
H -21.000000000   -45.000000000   36.000000000
C -24.000000000   -42.000000000   0.000000000
H -24.000000000   -39.000000000   3.000000000
H -21.000000000   -42.000000000   3.000000000
H -21.000000000   -39.000000000   0.000000000
C -24.000000000   -42.000000000   6.000000000
H -24.000000000   -39.000000000   9.000000000
H -21.000000000   -42.000000000   9.000000000
H -21.000000000   -39.000000000   6.000000000
C -24.000000000   -42.000000000   12.000000000
H -24.000000000   -39.000000000   15.000000000
H -21.000000000   -42.000000000   15.000000000
H -21.000000000   -39.000000000   12.000000000
C -24.000000000   -42.000000000   18.000000000
H -24.000000000   -39.000000000   21.000000000
H -21.000000000   -42.000000000   21.000000000
H -21.000000000   -39.000000000   18.000000000
C -24.000000000   -42.000000000   24.000000000
H -24.000000000   -39.000000000   27.000000000
H -21.000000000   -42.000000000   27.000000000
H -21.000000000   -39.000000000   24.000000000
C -24.000000000   -42.000000000   30.000000000
H -24.000000000   -39.000000000   33.000000000
H -21.000000000   -42.000000000   33.000000000
H -21.000000000   -39.000000000   30.000000000
C -24.000000000   -42.000000000   36.000000000
H -24.000000000   -39.000000000   39.000000000
H -21.000000000   -42.000000000   39.000000000
H -21.000000000   -39.000000000   36.000000000
C -24.000000000   -36.000000000   0.000000000
H -24.000000000   -33.000000000   3.000000000
H -21.000000000   -36.000000000   3.000000000
H -21.000000000   -33.000000000   0.000000000
C -24.000000000   -36.000000000   6.000000000
H -24.000000000   -33.000000000   9.000000000
H -21.000000000   -36.000000000   9.000000000
H -21.000000000   -33.000000000   6.000000000
C -24.000000000   -36.000000000   12.000000000
H -24.000000000   -33.000000000   15.000000000
H -21.000000000   -36.000000000   15.000000000
H -21.000000000   -33.000000000   12.000000000
C -24.000000000   -36.000000000   18.000000000
H -24.000000000   -33.000000000   21.000000000
H -21.000000000   -36.000000000   21.000000000
H -21.000000000   -33.000000000   18.000000000
C -24.000000000   -36.000000000   24.000000000
H -24.000000000   -33.000000000   27.000000000
H -21.000000000   -36.000000000   27.000000000
H -21.000000000   -33.000000000   24.000000000
C -24.000000000   -36.000000000   30.000000000
H -24.000000000   -33.000000000   33.000000000
H -21.000000000   -36.000000000   33.000000000
H -21.000000000   -33.000000000   30.000000000
C -24.000000000   -36.000000000   36.000000000
H -24.000000000   -33.000000000   39.000000000
H -21.000000000   -36.000000000   39.000000000
H -21.000000000   -33.000000000   36.000000000
C -24.000000000   -30.000000000   0.000000000
H -24.000000000   -27.000000000   3.000000000
H -21.000000000   -30.000000000   3.000000000
H -21.000000000   -27.000000000   0.000000000
C -24.000000000   -30.000000000   6.000000000
H -24.000000000   -27.000000000   9.000000000
H -21.000000000   -30.000000000   9.000000000
H -21.000000000   -27.000000000   6.000000000
C -24.000000000   -30.000000000   12.000000000
H -24.000000000   -27.000000000   15.000000000
H -21.000000000   -30.000000000   15.000000000
H -21.000000000   -27.000000000   12.000000000
C -24.000000000   -30.000000000   18.000000000
H -24.000000000   -27.000000000   21.000000000
H -21.000000000   -30.000000000   21.000000000
H -21.000000000   -27.000000000   18.000000000
C -24.000000000   -30.000000000   24.000000000
H -24.000000000   -27.000000000   27.000000000
H -21.000000000   -30.000000000   27.000000000
H -21.000000000   -27.000000000   24.000000000
C -24.000000000   -30.000000000   30.000000000
H -24.000000000   -27.000000000   33.000000000
H -21.000000000   -30.000000000   33.000000000
H -21.000000000   -27.000000000   30.000000000
C -24.000000000   -30.000000000   36.000000000
H -24.000000000   -27.000000000   39.000000000
H -21.000000000   -30.000000000   39.000000000
H -21.000000000   -27.000000000   36.000000000
C -24.000000000   -24.000000000   0.000000000
H -24.000000000   -21.000000000   3.000000000
H -21.000000000   -24.000000000   3.000000000
H -21.000000000   -21.000000000   0.000000000
C -24.000000000   -24.000000000   6.000000000
H -24.000000000   -21.000000000   9.000000000
H -21.000000000   -24.000000000   9.000000000
H -21.000000000   -21.000000000   6.000000000
C -24.000000000   -24.000000000   12.000000000
H -24.000000000   -21.000000000   15.000000000
H -21.000000000   -24.000000000   15.000000000
H -21.000000000   -21.000000000   12.000000000
C -24.000000000   -24.000000000   18.000000000
H -24.000000000   -21.000000000   21.000000000
H -21.000000000   -24.000000000   21.000000000
H -21.000000000   -21.000000000   18.000000000
C -24.000000000   -24.000000000   24.000000000
H -24.000000000   -21.000000000   27.000000000
H -21.000000000   -24.000000000   27.000000000
H -21.000000000   -21.000000000   24.000000000
C -24.000000000   -24.000000000   30.000000000
H -24.000000000   -21.000000000   33.000000000
H -21.000000000   -24.000000000   33.000000000
H -21.000000000   -21.000000000   30.000000000
C -24.000000000   -24.000000000   36.000000000
H -24.000000000   -21.000000000   39.000000000
H -21.000000000   -24.000000000   39.000000000
H -21.000000000   -21.000000000   36.000000000
C -24.000000000   -18.000000000   0.000000000
H -24.000000000   -15.000000000   3.000000000
H -21.000000000   -18.000000000   3.000000000
H -21.000000000   -15.000000000   0.000000000
C -24.000000000   -18.000000000   6.000000000
H -24.000000000   -15.000000000   9.000000000
H -21.000000000   -18.000000000   9.000000000
H -21.000000000   -15.000000000   6.000000000
C -24.000000000   -18.000000000   12.000000000
H -24.000000000   -15.000000000   15.000000000
H -21.000000000   -18.000000000   15.000000000
H -21.000000000   -15.000000000   12.000000000
C -24.000000000   -18.000000000   18.000000000
H -24.000000000   -15.000000000   21.000000000
H -21.000000000   -18.000000000   21.000000000
H -21.000000000   -15.000000000   18.000000000
C -24.000000000   -18.000000000   24.000000000
H -24.000000000   -15.000000000   27.000000000
H -21.000000000   -18.000000000   27.000000000
H -21.000000000   -15.000000000   24.000000000
C -24.000000000   -18.000000000   30.000000000
H -24.000000000   -15.000000000   33.000000000
H -21.000000000   -18.000000000   33.000000000
H -21.000000000   -15.000000000   30.000000000
C -24.000000000   -18.000000000   36.000000000
H -24.000000000   -15.000000000   39.000000000
H -21.000000000   -18.000000000   39.000000000
H -21.000000000   -15.000000000   36.000000000
C -24.000000000   -12.000000000   0.000000000
H -21.000000000   -12.000000000   3.000000000
C -24.000000000   -12.000000000   6.000000000
H -21.000000000   -12.000000000   9.000000000
C -24.000000000   -12.000000000   12.000000000
H -21.000000000   -12.000000000   15.000000000
C -24.000000000   -12.000000000   18.000000000
H -21.000000000   -12.000000000   21.000000000
C -24.000000000   -12.000000000   24.000000000
H -21.000000000   -12.000000000   27.000000000
C -24.000000000   -12.000000000   30.000000000
H -21.000000000   -12.000000000   33.000000000
C -24.000000000   -12.000000000   36.000000000
H -21.000000000   -12.000000000   39.000000000
C -18.000000000   -60.000000000   0.000000000
H -18.000000000   -57.000000000   3.000000000
H -15.000000000   -60.000000000   3.000000000
H -15.000000000   -57.000000000   0.000000000
C -18.000000000   -60.000000000   6.000000000
H -18.000000000   -57.000000000   9.000000000
H -15.000000000   -60.000000000   9.000000000
H -15.000000000   -57.000000000   6.000000000
C -18.000000000   -60.000000000   12.000000000
H -18.000000000   -57.000000000   15.000000000
H -15.000000000   -60.000000000   15.000000000
H -15.000000000   -57.000000000   12.000000000
C -18.000000000   -60.000000000   18.000000000
H -18.000000000   -57.000000000   21.000000000
H -15.000000000   -60.000000000   21.000000000
H -15.000000000   -57.000000000   18.000000000
C -18.000000000   -60.000000000   24.000000000
H -18.000000000   -57.000000000   27.000000000
H -15.000000000   -60.000000000   27.000000000
H -15.000000000   -57.000000000   24.000000000
C -18.000000000   -60.000000000   30.000000000
H -18.000000000   -57.000000000   33.000000000
H -15.000000000   -60.000000000   33.000000000
H -15.000000000   -57.000000000   30.000000000
C -18.000000000   -60.000000000   36.000000000
H -18.000000000   -57.000000000   39.000000000
H -15.000000000   -60.000000000   39.000000000
H -15.000000000   -57.000000000   36.000000000
C -18.000000000   -54.000000000   0.000000000
H -18.000000000   -51.000000000   3.000000000
H -15.000000000   -54.000000000   3.000000000
H -15.000000000   -51.000000000   0.000000000
C -18.000000000   -54.000000000   6.000000000
H -18.000000000   -51.000000000   9.000000000
H -15.000000000   -54.000000000   9.000000000
H -15.000000000   -51.000000000   6.000000000
C -18.000000000   -54.000000000   12.000000000
H -18.000000000   -51.000000000   15.000000000
H -15.000000000   -54.000000000   15.000000000
H -15.000000000   -51.000000000   12.000000000
C -18.000000000   -54.000000000   18.000000000
H -18.000000000   -51.000000000   21.000000000
H -15.000000000   -54.000000000   21.000000000
H -15.000000000   -51.000000000   18.000000000
C -18.000000000   -54.000000000   24.000000000
H -18.000000000   -51.000000000   27.000000000
H -15.000000000   -54.000000000   27.000000000
H -15.000000000   -51.000000000   24.000000000
C -18.000000000   -54.000000000   30.000000000
H -18.000000000   -51.000000000   33.000000000
H -15.000000000   -54.000000000   33.000000000
H -15.000000000   -51.000000000   30.000000000
C -18.000000000   -54.000000000   36.000000000
H -18.000000000   -51.000000000   39.000000000
H -15.000000000   -54.000000000   39.000000000
H -15.000000000   -51.000000000   36.000000000
C -18.000000000   -48.000000000   0.000000000
H -18.000000000   -45.000000000   3.000000000
H -15.000000000   -48.000000000   3.000000000
H -15.000000000   -45.000000000   0.000000000
C -18.000000000   -48.000000000   6.000000000
H -18.000000000   -45.000000000   9.000000000
H -15.000000000   -48.000000000   9.000000000
H -15.000000000   -45.000000000   6.000000000
C -18.000000000   -48.000000000   12.000000000
H -18.000000000   -45.000000000   15.000000000
H -15.000000000   -48.000000000   15.000000000
H -15.000000000   -45.000000000   12.000000000
C -18.000000000   -48.000000000   18.000000000
H -18.000000000   -45.000000000   21.000000000
H -15.000000000   -48.000000000   21.000000000
H -15.000000000   -45.000000000   18.000000000
C -18.000000000   -48.000000000   24.000000000
H -18.000000000   -45.000000000   27.000000000
H -15.000000000   -48.000000000   27.000000000
H -15.000000000   -45.000000000   24.000000000
C -18.000000000   -48.000000000   30.000000000
H -18.000000000   -45.000000000   33.000000000
H -15.000000000   -48.000000000   33.000000000
H -15.000000000   -45.000000000   30.000000000
C -18.000000000   -48.000000000   36.000000000
H -18.000000000   -45.000000000   39.000000000
H -15.000000000   -48.000000000   39.000000000
H -15.000000000   -45.000000000   36.000000000
C -18.000000000   -42.000000000   0.000000000
H -18.000000000   -39.000000000   3.000000000
H -15.000000000   -42.000000000   3.000000000
H -15.000000000   -39.000000000   0.000000000
C -18.000000000   -42.000000000   6.000000000
H -18.000000000   -39.000000000   9.000000000
H -15.000000000   -42.000000000   9.000000000
H -15.000000000   -39.000000000   6.000000000
C -18.000000000   -42.000000000   12.000000000
H -18.000000000   -39.000000000   15.000000000
H -15.000000000   -42.000000000   15.000000000
H -15.000000000   -39.000000000   12.000000000
C -18.000000000   -42.000000000   18.000000000
H -18.000000000   -39.000000000   21.000000000
H -15.000000000   -42.000000000   21.000000000
H -15.000000000   -39.000000000   18.000000000
C -18.000000000   -42.000000000   24.000000000
H -18.000000000   -39.000000000   27.000000000
H -15.000000000   -42.000000000   27.000000000
H -15.000000000   -39.000000000   24.000000000
C -18.000000000   -42.000000000   30.000000000
H -18.000000000   -39.000000000   33.000000000
H -15.000000000   -42.000000000   33.000000000
H -15.000000000   -39.000000000   30.000000000
C -18.000000000   -42.000000000   36.000000000
H -18.000000000   -39.000000000   39.000000000
H -15.000000000   -42.000000000   39.000000000
H -15.000000000   -39.000000000   36.000000000
C -18.000000000   -36.000000000   0.000000000
H -18.000000000   -33.000000000   3.000000000
H -15.000000000   -36.000000000   3.000000000
H -15.000000000   -33.000000000   0.000000000
C -18.000000000   -36.000000000   6.000000000
H -18.000000000   -33.000000000   9.000000000
H -15.000000000   -36.000000000   9.000000000
H -15.000000000   -33.000000000   6.000000000
C -18.000000000   -36.000000000   12.000000000
H -18.000000000   -33.000000000   15.000000000
H -15.000000000   -36.000000000   15.000000000
H -15.000000000   -33.000000000   12.000000000
C -18.000000000   -36.000000000   18.000000000
H -18.000000000   -33.000000000   21.000000000
H -15.000000000   -36.000000000   21.000000000
H -15.000000000   -33.000000000   18.000000000
C -18.000000000   -36.000000000   24.000000000
H -18.000000000   -33.000000000   27.000000000
H -15.000000000   -36.000000000   27.000000000
H -15.000000000   -33.000000000   24.000000000
C -18.000000000   -36.000000000   30.000000000
H -18.000000000   -33.000000000   33.000000000
H -15.000000000   -36.000000000   33.000000000
H -15.000000000   -33.000000000   30.000000000
C -18.000000000   -36.000000000   36.000000000
H -18.000000000   -33.000000000   39.000000000
H -15.000000000   -36.000000000   39.000000000
H -15.000000000   -33.000000000   36.000000000
C -18.000000000   -30.000000000   0.000000000
H -18.000000000   -27.000000000   3.000000000
H -15.000000000   -30.000000000   3.000000000
H -15.000000000   -27.000000000   0.000000000
C -18.000000000   -30.000000000   6.000000000
H -18.000000000   -27.000000000   9.000000000
H -15.000000000   -30.000000000   9.000000000
H -15.000000000   -27.000000000   6.000000000
C -18.000000000   -30.000000000   12.000000000
H -18.000000000   -27.000000000   15.000000000
H -15.000000000   -30.000000000   15.000000000
H -15.000000000   -27.000000000   12.000000000
C -18.000000000   -30.000000000   18.000000000
H -18.000000000   -27.000000000   21.000000000
H -15.000000000   -30.000000000   21.000000000
H -15.000000000   -27.000000000   18.000000000
C -18.000000000   -30.000000000   24.000000000
H -18.000000000   -27.000000000   27.000000000
H -15.000000000   -30.000000000   27.000000000
H -15.000000000   -27.000000000   24.000000000
C -18.000000000   -30.000000000   30.000000000
H -18.000000000   -27.000000000   33.000000000
H -15.000000000   -30.000000000   33.000000000
H -15.000000000   -27.000000000   30.000000000
C -18.000000000   -30.000000000   36.000000000
H -18.000000000   -27.000000000   39.000000000
H -15.000000000   -30.000000000   39.000000000
H -15.000000000   -27.000000000   36.000000000
C -18.000000000   -24.000000000   0.000000000
H -18.000000000   -21.000000000   3.000000000
H -15.000000000   -24.000000000   3.000000000
H -15.000000000   -21.000000000   0.000000000
C -18.000000000   -24.000000000   6.000000000
H -18.000000000   -21.000000000   9.000000000
H -15.000000000   -24.000000000   9.000000000
H -15.000000000   -21.000000000   6.000000000
C -18.000000000   -24.000000000   12.000000000
H -18.000000000   -21.000000000   15.000000000
H -15.000000000   -24.000000000   15.000000000
H -15.000000000   -21.000000000   12.000000000
C -18.000000000   -24.000000000   18.000000000
H -18.000000000   -21.000000000   21.000000000
H -15.000000000   -24.000000000   21.000000000
H -15.000000000   -21.000000000   18.000000000
C -18.000000000   -24.000000000   24.000000000
H -18.000000000   -21.000000000   27.000000000
H -15.000000000   -24.000000000   27.000000000
H -15.000000000   -21.000000000   24.000000000
C -18.000000000   -24.000000000   30.000000000
H -18.000000000   -21.000000000   33.000000000
H -15.000000000   -24.000000000   33.000000000
H -15.000000000   -21.000000000   30.000000000
C -18.000000000   -24.000000000   36.000000000
H -18.000000000   -21.000000000   39.000000000
H -15.000000000   -24.000000000   39.000000000
H -15.000000000   -21.000000000   36.000000000
C -18.000000000   -18.000000000   0.000000000
H -18.000000000   -15.000000000   3.000000000
H -15.000000000   -18.000000000   3.000000000
H -15.000000000   -15.000000000   0.000000000
C -18.000000000   -18.000000000   6.000000000
H -18.000000000   -15.000000000   9.000000000
H -15.000000000   -18.000000000   9.000000000
H -15.000000000   -15.000000000   6.000000000
C -18.000000000   -18.000000000   12.000000000
H -18.000000000   -15.000000000   15.000000000
H -15.000000000   -18.000000000   15.000000000
H -15.000000000   -15.000000000   12.000000000
C -18.000000000   -18.000000000   18.000000000
H -18.000000000   -15.000000000   21.000000000
H -15.000000000   -18.000000000   21.000000000
H -15.000000000   -15.000000000   18.000000000
C -18.000000000   -18.000000000   24.000000000
H -18.000000000   -15.000000000   27.000000000
H -15.000000000   -18.000000000   27.000000000
H -15.000000000   -15.000000000   24.000000000
C -18.000000000   -18.000000000   30.000000000
H -18.000000000   -15.000000000   33.000000000
H -15.000000000   -18.000000000   33.000000000
H -15.000000000   -15.000000000   30.000000000
C -18.000000000   -18.000000000   36.000000000
H -18.000000000   -15.000000000   39.000000000
H -15.000000000   -18.000000000   39.000000000
H -15.000000000   -15.000000000   36.000000000
C -18.000000000   -12.000000000   0.000000000
H -15.000000000   -12.000000000   3.000000000
C -18.000000000   -12.000000000   6.000000000
H -15.000000000   -12.000000000   9.000000000
C -18.000000000   -12.000000000   12.000000000
H -15.000000000   -12.000000000   15.000000000
C -18.000000000   -12.000000000   18.000000000
H -15.000000000   -12.000000000   21.000000000
C -18.000000000   -12.000000000   24.000000000
H -15.000000000   -12.000000000   27.000000000
C -18.000000000   -12.000000000   30.000000000
H -15.000000000   -12.000000000   33.000000000
C -18.000000000   -12.000000000   36.000000000
H -15.000000000   -12.000000000   39.000000000
C -12.000000000   -60.000000000   0.000000000
H -12.000000000   -57.000000000   3.000000000
H -9.000000000   -60.000000000   3.000000000
H -9.000000000   -57.000000000   0.000000000
C -12.000000000   -60.000000000   6.000000000
H -12.000000000   -57.000000000   9.000000000
H -9.000000000   -60.000000000   9.000000000
H -9.000000000   -57.000000000   6.000000000
C -12.000000000   -60.000000000   12.000000000
H -12.000000000   -57.000000000   15.000000000
H -9.000000000   -60.000000000   15.000000000
H -9.000000000   -57.000000000   12.000000000
C -12.000000000   -60.000000000   18.000000000
H -12.000000000   -57.000000000   21.000000000
H -9.000000000   -60.000000000   21.000000000
H -9.000000000   -57.000000000   18.000000000
C -12.000000000   -60.000000000   24.000000000
H -12.000000000   -57.000000000   27.000000000
H -9.000000000   -60.000000000   27.000000000
H -9.000000000   -57.000000000   24.000000000
C -12.000000000   -60.000000000   30.000000000
H -12.000000000   -57.000000000   33.000000000
H -9.000000000   -60.000000000   33.000000000
H -9.000000000   -57.000000000   30.000000000
C -12.000000000   -60.000000000   36.000000000
H -12.000000000   -57.000000000   39.000000000
H -9.000000000   -60.000000000   39.000000000
H -9.000000000   -57.000000000   36.000000000
C -12.000000000   -54.000000000   0.000000000
H -12.000000000   -51.000000000   3.000000000
H -9.000000000   -54.000000000   3.000000000
H -9.000000000   -51.000000000   0.000000000
C -12.000000000   -54.000000000   6.000000000
H -12.000000000   -51.000000000   9.000000000
H -9.000000000   -54.000000000   9.000000000
H -9.000000000   -51.000000000   6.000000000
C -12.000000000   -54.000000000   12.000000000
H -12.000000000   -51.000000000   15.000000000
H -9.000000000   -54.000000000   15.000000000
H -9.000000000   -51.000000000   12.000000000
C -12.000000000   -54.000000000   18.000000000
H -12.000000000   -51.000000000   21.000000000
H -9.000000000   -54.000000000   21.000000000
H -9.000000000   -51.000000000   18.000000000
C -12.000000000   -54.000000000   24.000000000
H -12.000000000   -51.000000000   27.000000000
H -9.000000000   -54.000000000   27.000000000
H -9.000000000   -51.000000000   24.000000000
C -12.000000000   -54.000000000   30.000000000
H -12.000000000   -51.000000000   33.000000000
H -9.000000000   -54.000000000   33.000000000
H -9.000000000   -51.000000000   30.000000000
C -12.000000000   -54.000000000   36.000000000
H -12.000000000   -51.000000000   39.000000000
H -9.000000000   -54.000000000   39.000000000
H -9.000000000   -51.000000000   36.000000000
C -12.000000000   -48.000000000   0.000000000
H -12.000000000   -45.000000000   3.000000000
H -9.000000000   -48.000000000   3.000000000
H -9.000000000   -45.000000000   0.000000000
C -12.000000000   -48.000000000   6.000000000
H -12.000000000   -45.000000000   9.000000000
H -9.000000000   -48.000000000   9.000000000
H -9.000000000   -45.000000000   6.000000000
C -12.000000000   -48.000000000   12.000000000
H -12.000000000   -45.000000000   15.000000000
H -9.000000000   -48.000000000   15.000000000
H -9.000000000   -45.000000000   12.000000000
C -12.000000000   -48.000000000   18.000000000
H -12.000000000   -45.000000000   21.000000000
H -9.000000000   -48.000000000   21.000000000
H -9.000000000   -45.000000000   18.000000000
C -12.000000000   -48.000000000   24.000000000
H -12.000000000   -45.000000000   27.000000000
H -9.000000000   -48.000000000   27.000000000
H -9.000000000   -45.000000000   24.000000000
C -12.000000000   -48.000000000   30.000000000
H -12.000000000   -45.000000000   33.000000000
H -9.000000000   -48.000000000   33.000000000
H -9.000000000   -45.000000000   30.000000000
C -12.000000000   -48.000000000   36.000000000
H -12.000000000   -45.000000000   39.000000000
H -9.000000000   -48.000000000   39.000000000
H -9.000000000   -45.000000000   36.000000000
C -12.000000000   -42.000000000   0.000000000
H -12.000000000   -39.000000000   3.000000000
H -9.000000000   -42.000000000   3.000000000
H -9.000000000   -39.000000000   0.000000000
C -12.000000000   -42.000000000   6.000000000
H -12.000000000   -39.000000000   9.000000000
H -9.000000000   -42.000000000   9.000000000
H -9.000000000   -39.000000000   6.000000000
C -12.000000000   -42.000000000   12.000000000
H -12.000000000   -39.000000000   15.000000000
H -9.000000000   -42.000000000   15.000000000
H -9.000000000   -39.000000000   12.000000000
C -12.000000000   -42.000000000   18.000000000
H -12.000000000   -39.000000000   21.000000000
H -9.000000000   -42.000000000   21.000000000
H -9.000000000   -39.000000000   18.000000000
C -12.000000000   -42.000000000   24.000000000
H -12.000000000   -39.000000000   27.000000000
H -9.000000000   -42.000000000   27.000000000
H -9.000000000   -39.000000000   24.000000000
C -12.000000000   -42.000000000   30.000000000
H -12.000000000   -39.000000000   33.000000000
H -9.000000000   -42.000000000   33.000000000
H -9.000000000   -39.000000000   30.000000000
C -12.000000000   -42.000000000   36.000000000
H -12.000000000   -39.000000000   39.000000000
H -9.000000000   -42.000000000   39.000000000
H -9.000000000   -39.000000000   36.000000000
C -12.000000000   -36.000000000   0.000000000
H -12.000000000   -33.000000000   3.000000000
H -9.000000000   -36.000000000   3.000000000
H -9.000000000   -33.000000000   0.000000000
C -12.000000000   -36.000000000   6.000000000
H -12.000000000   -33.000000000   9.000000000
H -9.000000000   -36.000000000   9.000000000
H -9.000000000   -33.000000000   6.000000000
C -12.000000000   -36.000000000   12.000000000
H -12.000000000   -33.000000000   15.000000000
H -9.000000000   -36.000000000   15.000000000
H -9.000000000   -33.000000000   12.000000000
C -12.000000000   -36.000000000   18.000000000
H -12.000000000   -33.000000000   21.000000000
H -9.000000000   -36.000000000   21.000000000
H -9.000000000   -33.000000000   18.000000000
C -12.000000000   -36.000000000   24.000000000
H -12.000000000   -33.000000000   27.000000000
H -9.000000000   -36.000000000   27.000000000
H -9.000000000   -33.000000000   24.000000000
C -12.000000000   -36.000000000   30.000000000
H -12.000000000   -33.000000000   33.000000000
H -9.000000000   -36.000000000   33.000000000
H -9.000000000   -33.000000000   30.000000000
C -12.000000000   -36.000000000   36.000000000
H -12.000000000   -33.000000000   39.000000000
H -9.000000000   -36.000000000   39.000000000
H -9.000000000   -33.000000000   36.000000000
C -12.000000000   -30.000000000   0.000000000
H -12.000000000   -27.000000000   3.000000000
H -9.000000000   -30.000000000   3.000000000
H -9.000000000   -27.000000000   0.000000000
C -12.000000000   -30.000000000   6.000000000
H -12.000000000   -27.000000000   9.000000000
H -9.000000000   -30.000000000   9.000000000
H -9.000000000   -27.000000000   6.000000000
C -12.000000000   -30.000000000   12.000000000
H -12.000000000   -27.000000000   15.000000000
H -9.000000000   -30.000000000   15.000000000
H -9.000000000   -27.000000000   12.000000000
C -12.000000000   -30.000000000   18.000000000
H -12.000000000   -27.000000000   21.000000000
H -9.000000000   -30.000000000   21.000000000
H -9.000000000   -27.000000000   18.000000000
C -12.000000000   -30.000000000   24.000000000
H -12.000000000   -27.000000000   27.000000000
H -9.000000000   -30.000000000   27.000000000
H -9.000000000   -27.000000000   24.000000000
C -12.000000000   -30.000000000   30.000000000
H -12.000000000   -27.000000000   33.000000000
H -9.000000000   -30.000000000   33.000000000
H -9.000000000   -27.000000000   30.000000000
C -12.000000000   -30.000000000   36.000000000
H -12.000000000   -27.000000000   39.000000000
H -9.000000000   -30.000000000   39.000000000
H -9.000000000   -27.000000000   36.000000000
C -12.000000000   -24.000000000   0.000000000
H -12.000000000   -21.000000000   3.000000000
H -9.000000000   -24.000000000   3.000000000
H -9.000000000   -21.000000000   0.000000000
C -12.000000000   -24.000000000   6.000000000
H -12.000000000   -21.000000000   9.000000000
H -9.000000000   -24.000000000   9.000000000
H -9.000000000   -21.000000000   6.000000000
C -12.000000000   -24.000000000   12.000000000
H -12.000000000   -21.000000000   15.000000000
H -9.000000000   -24.000000000   15.000000000
H -9.000000000   -21.000000000   12.000000000
C -12.000000000   -24.000000000   18.000000000
H -12.000000000   -21.000000000   21.000000000
H -9.000000000   -24.000000000   21.000000000
H -9.000000000   -21.000000000   18.000000000
C -12.000000000   -24.000000000   24.000000000
H -12.000000000   -21.000000000   27.000000000
H -9.000000000   -24.000000000   27.000000000
H -9.000000000   -21.000000000   24.000000000
C -12.000000000   -24.000000000   30.000000000
H -12.000000000   -21.000000000   33.000000000
H -9.000000000   -24.000000000   33.000000000
H -9.000000000   -21.000000000   30.000000000
C -12.000000000   -24.000000000   36.000000000
H -12.000000000   -21.000000000   39.000000000
H -9.000000000   -24.000000000   39.000000000
H -9.000000000   -21.000000000   36.000000000
C -12.000000000   -18.000000000   0.000000000
H -12.000000000   -15.000000000   3.000000000
H -9.000000000   -18.000000000   3.000000000
H -9.000000000   -15.000000000   0.000000000
C -12.000000000   -18.000000000   6.000000000
H -12.000000000   -15.000000000   9.000000000
H -9.000000000   -18.000000000   9.000000000
H -9.000000000   -15.000000000   6.000000000
C -12.000000000   -18.000000000   12.000000000
H -12.000000000   -15.000000000   15.000000000
H -9.000000000   -18.000000000   15.000000000
H -9.000000000   -15.000000000   12.000000000
C -12.000000000   -18.000000000   18.000000000
H -12.000000000   -15.000000000   21.000000000
H -9.000000000   -18.000000000   21.000000000
H -9.000000000   -15.000000000   18.000000000
C -12.000000000   -18.000000000   24.000000000
H -12.000000000   -15.000000000   27.000000000
H -9.000000000   -18.000000000   27.000000000
H -9.000000000   -15.000000000   24.000000000
C -12.000000000   -18.000000000   30.000000000
H -12.000000000   -15.000000000   33.000000000
H -9.000000000   -18.000000000   33.000000000
H -9.000000000   -15.000000000   30.000000000
C -12.000000000   -18.000000000   36.000000000
H -12.000000000   -15.000000000   39.000000000
H -9.000000000   -18.000000000   39.000000000
H -9.000000000   -15.000000000   36.000000000
C -12.000000000   -12.000000000   0.000000000
H -9.000000000   -12.000000000   3.000000000
C -12.000000000   -12.000000000   6.000000000
H -9.000000000   -12.000000000   9.000000000
C -12.000000000   -12.000000000   12.000000000
H -9.000000000   -12.000000000   15.000000000
C -12.000000000   -12.000000000   18.000000000
H -9.000000000   -12.000000000   21.000000000
C -12.000000000   -12.000000000   24.000000000
H -9.000000000   -12.000000000   27.000000000
C -12.000000000   -12.000000000   30.000000000
H -9.000000000   -12.000000000   33.000000000
C -12.000000000   -12.000000000   36.000000000
H -9.000000000   -12.000000000   39.000000000
C -6.000000000   -60.000000000   0.000000000
H -6.000000000   -57.000000000   3.000000000
H -3.000000000   -60.000000000   3.000000000
H -3.000000000   -57.000000000   0.000000000
C -6.000000000   -60.000000000   6.000000000
H -6.000000000   -57.000000000   9.000000000
H -3.000000000   -60.000000000   9.000000000
H -3.000000000   -57.000000000   6.000000000
C -6.000000000   -60.000000000   12.000000000
H -6.000000000   -57.000000000   15.000000000
H -3.000000000   -60.000000000   15.000000000
H -3.000000000   -57.000000000   12.000000000
C -6.000000000   -60.000000000   18.000000000
H -6.000000000   -57.000000000   21.000000000
H -3.000000000   -60.000000000   21.000000000
H -3.000000000   -57.000000000   18.000000000
C -6.000000000   -60.000000000   24.000000000
H -6.000000000   -57.000000000   27.000000000
H -3.000000000   -60.000000000   27.000000000
H -3.000000000   -57.000000000   24.000000000
C -6.000000000   -60.000000000   30.000000000
H -6.000000000   -57.000000000   33.000000000
H -3.000000000   -60.000000000   33.000000000
H -3.000000000   -57.000000000   30.000000000
C -6.000000000   -60.000000000   36.000000000
H -6.000000000   -57.000000000   39.000000000
H -3.000000000   -60.000000000   39.000000000
H -3.000000000   -57.000000000   36.000000000
C -6.000000000   -54.000000000   0.000000000
H -6.000000000   -51.000000000   3.000000000
H -3.000000000   -54.000000000   3.000000000
H -3.000000000   -51.000000000   0.000000000
C -6.000000000   -54.000000000   6.000000000
H -6.000000000   -51.000000000   9.000000000
H -3.000000000   -54.000000000   9.000000000
H -3.000000000   -51.000000000   6.000000000
C -6.000000000   -54.000000000   12.000000000
H -6.000000000   -51.000000000   15.000000000
H -3.000000000   -54.000000000   15.000000000
H -3.000000000   -51.000000000   12.000000000
C -6.000000000   -54.000000000   18.000000000
H -6.000000000   -51.000000000   21.000000000
H -3.000000000   -54.000000000   21.000000000
H -3.000000000   -51.000000000   18.000000000
C -6.000000000   -54.000000000   24.000000000
H -6.000000000   -51.000000000   27.000000000
H -3.000000000   -54.000000000   27.000000000
H -3.000000000   -51.000000000   24.000000000
C -6.000000000   -54.000000000   30.000000000
H -6.000000000   -51.000000000   33.000000000
H -3.000000000   -54.000000000   33.000000000
H -3.000000000   -51.000000000   30.000000000
C -6.000000000   -54.000000000   36.000000000
H -6.000000000   -51.000000000   39.000000000
H -3.000000000   -54.000000000   39.000000000
H -3.000000000   -51.000000000   36.000000000
C -6.000000000   -48.000000000   0.000000000
H -6.000000000   -45.000000000   3.000000000
H -3.000000000   -48.000000000   3.000000000
H -3.000000000   -45.000000000   0.000000000
C -6.000000000   -48.000000000   6.000000000
H -6.000000000   -45.000000000   9.000000000
H -3.000000000   -48.000000000   9.000000000
H -3.000000000   -45.000000000   6.000000000
C -6.000000000   -48.000000000   12.000000000
H -6.000000000   -45.000000000   15.000000000
H -3.000000000   -48.000000000   15.000000000
H -3.000000000   -45.000000000   12.000000000
C -6.000000000   -48.000000000   18.000000000
H -6.000000000   -45.000000000   21.000000000
H -3.000000000   -48.000000000   21.000000000
H -3.000000000   -45.000000000   18.000000000
C -6.000000000   -48.000000000   24.000000000
H -6.000000000   -45.000000000   27.000000000
H -3.000000000   -48.000000000   27.000000000
H -3.000000000   -45.000000000   24.000000000
C -6.000000000   -48.000000000   30.000000000
H -6.000000000   -45.000000000   33.000000000
H -3.000000000   -48.000000000   33.000000000
H -3.000000000   -45.000000000   30.000000000
C -6.000000000   -48.000000000   36.000000000
H -6.000000000   -45.000000000   39.000000000
H -3.000000000   -48.000000000   39.000000000
H -3.000000000   -45.000000000   36.000000000
C -6.000000000   -42.000000000   0.000000000
H -6.000000000   -39.000000000   3.000000000
H -3.000000000   -42.000000000   3.000000000
C -6.000000000   -42.000000000   6.000000000
H -6.000000000   -39.000000000   9.000000000
H -3.000000000   -42.000000000   9.000000000
C -6.000000000   -42.000000000   12.000000000
H -6.000000000   -39.000000000   15.000000000
H -3.000000000   -42.000000000   15.000000000
C -6.000000000   -42.000000000   18.000000000
H -6.000000000   -39.000000000   21.000000000
H -3.000000000   -42.000000000   21.000000000
C -6.000000000   -42.000000000   24.000000000
H -6.000000000   -39.000000000   27.000000000
H -3.000000000   -42.000000000   27.000000000
C -6.000000000   -42.000000000   30.000000000
H -6.000000000   -39.000000000   33.000000000
H -3.000000000   -42.000000000   33.000000000
C -6.000000000   -42.000000000   36.000000000
H -6.000000000   -39.000000000   39.000000000
H -3.000000000   -42.000000000   39.000000000
C -6.000000000   -36.000000000   0.000000000
H -6.000000000   -33.000000000   3.000000000
C -6.000000000   -36.000000000   6.000000000
H -6.000000000   -33.000000000   9.000000000
C -6.000000000   -36.000000000   12.000000000
H -6.000000000   -33.000000000   15.000000000
C -6.000000000   -36.000000000   18.000000000
H -6.000000000   -33.000000000   21.000000000
C -6.000000000   -36.000000000   24.000000000
H -6.000000000   -33.000000000   27.000000000
C -6.000000000   -36.000000000   30.000000000
H -6.000000000   -33.000000000   33.000000000
C -6.000000000   -36.000000000   36.000000000
H -6.000000000   -33.000000000   39.000000000
C -6.000000000   -30.000000000   0.000000000
H -6.000000000   -27.000000000   3.000000000
C -6.000000000   -30.000000000   6.000000000
H -6.000000000   -27.000000000   9.000000000
C -6.000000000   -30.000000000   12.000000000
H -6.000000000   -27.000000000   15.000000000
C -6.000000000   -30.000000000   18.000000000
H -6.000000000   -27.000000000   21.000000000
C -6.000000000   -30.000000000   24.000000000
H -6.000000000   -27.000000000   27.000000000
C -6.000000000   -30.000000000   30.000000000
H -6.000000000   -27.000000000   33.000000000
C -6.000000000   -30.000000000   36.000000000
H -6.000000000   -27.000000000   39.000000000
C -6.000000000   -24.000000000   0.000000000
H -6.000000000   -21.000000000   3.000000000
C -6.000000000   -24.000000000   6.000000000
H -6.000000000   -21.000000000   9.000000000
C -6.000000000   -24.000000000   12.000000000
H -6.000000000   -21.000000000   15.000000000
C -6.000000000   -24.000000000   18.000000000
H -6.000000000   -21.000000000   21.000000000
C -6.000000000   -24.000000000   24.000000000
H -6.000000000   -21.000000000   27.000000000
C -6.000000000   -24.000000000   30.000000000
H -6.000000000   -21.000000000   33.000000000
C -6.000000000   -24.000000000   36.000000000
H -6.000000000   -21.000000000   39.000000000
C -6.000000000   -18.000000000   0.000000000
H -6.000000000   -15.000000000   3.000000000
C -6.000000000   -18.000000000   6.000000000
H -6.000000000   -15.000000000   9.000000000
C -6.000000000   -18.000000000   12.000000000
H -6.000000000   -15.000000000   15.000000000
C -6.000000000   -18.000000000   18.000000000
H -6.000000000   -15.000000000   21.000000000
C -6.000000000   -18.000000000   24.000000000
H -6.000000000   -15.000000000   27.000000000
C -6.000000000   -18.000000000   30.000000000
H -6.000000000   -15.000000000   33.000000000
C -6.000000000   -18.000000000   36.000000000
H -6.000000000   -15.000000000   39.000000000
C -6.000000000   -12.000000000   0.000000000
C -6.000000000   -12.000000000   6.000000000
C -6.000000000   -12.000000000   12.000000000
C -6.000000000   -12.000000000   18.000000000
C -6.000000000   -12.000000000   24.000000000
C -6.000000000   -12.000000000   30.000000000
C -6.000000000   -12.000000000   36.000000000
C 0.000000000   -60.000000000   0.000000000
H 0.000000000   -57.000000000   3.000000000
H 3.000000000   -60.000000000   3.000000000
H 3.000000000   -57.000000000   0.000000000
C 0.000000000   -60.000000000   6.000000000
H 0.000000000   -57.000000000   9.000000000
H 3.000000000   -60.000000000   9.000000000
H 3.000000000   -57.000000000   6.000000000
C 0.000000000   -60.000000000   12.000000000
H 0.000000000   -57.000000000   15.000000000
H 3.000000000   -60.000000000   15.000000000
H 3.000000000   -57.000000000   12.000000000
C 0.000000000   -60.000000000   18.000000000
H 0.000000000   -57.000000000   21.000000000
H 3.000000000   -60.000000000   21.000000000
H 3.000000000   -57.000000000   18.000000000
C 0.000000000   -60.000000000   24.000000000
H 0.000000000   -57.000000000   27.000000000
H 3.000000000   -60.000000000   27.000000000
H 3.000000000   -57.000000000   24.000000000
C 0.000000000   -60.000000000   30.000000000
H 0.000000000   -57.000000000   33.000000000
H 3.000000000   -60.000000000   33.000000000
H 3.000000000   -57.000000000   30.000000000
C 0.000000000   -60.000000000   36.000000000
H 0.000000000   -57.000000000   39.000000000
H 3.000000000   -60.000000000   39.000000000
H 3.000000000   -57.000000000   36.000000000
C 0.000000000   -54.000000000   0.000000000
H 0.000000000   -51.000000000   3.000000000
H 3.000000000   -54.000000000   3.000000000
H 3.000000000   -51.000000000   0.000000000
C 0.000000000   -54.000000000   6.000000000
H 0.000000000   -51.000000000   9.000000000
H 3.000000000   -54.000000000   9.000000000
H 3.000000000   -51.000000000   6.000000000
C 0.000000000   -54.000000000   12.000000000
H 0.000000000   -51.000000000   15.000000000
H 3.000000000   -54.000000000   15.000000000
H 3.000000000   -51.000000000   12.000000000
C 0.000000000   -54.000000000   18.000000000
H 0.000000000   -51.000000000   21.000000000
H 3.000000000   -54.000000000   21.000000000
H 3.000000000   -51.000000000   18.000000000
C 0.000000000   -54.000000000   24.000000000
H 0.000000000   -51.000000000   27.000000000
H 3.000000000   -54.000000000   27.000000000
H 3.000000000   -51.000000000   24.000000000
C 0.000000000   -54.000000000   30.000000000
H 0.000000000   -51.000000000   33.000000000
H 3.000000000   -54.000000000   33.000000000
H 3.000000000   -51.000000000   30.000000000
C 0.000000000   -54.000000000   36.000000000
H 0.000000000   -51.000000000   39.000000000
H 3.000000000   -54.000000000   39.000000000
H 3.000000000   -51.000000000   36.000000000
C 0.000000000   -48.000000000   0.000000000
H 0.000000000   -45.000000000   3.000000000
H 3.000000000   -48.000000000   3.000000000
H 3.000000000   -45.000000000   0.000000000
C 0.000000000   -48.000000000   6.000000000
H 0.000000000   -45.000000000   9.000000000
H 3.000000000   -48.000000000   9.000000000
H 3.000000000   -45.000000000   6.000000000
C 0.000000000   -48.000000000   12.000000000
H 0.000000000   -45.000000000   15.000000000
H 3.000000000   -48.000000000   15.000000000
H 3.000000000   -45.000000000   12.000000000
C 0.000000000   -48.000000000   18.000000000
H 0.000000000   -45.000000000   21.000000000
H 3.000000000   -48.000000000   21.000000000
H 3.000000000   -45.000000000   18.000000000
C 0.000000000   -48.000000000   24.000000000
H 0.000000000   -45.000000000   27.000000000
H 3.000000000   -48.000000000   27.000000000
H 3.000000000   -45.000000000   24.000000000
C 0.000000000   -48.000000000   30.000000000
H 0.000000000   -45.000000000   33.000000000
H 3.000000000   -48.000000000   33.000000000
H 3.000000000   -45.000000000   30.000000000
C 0.000000000   -48.000000000   36.000000000
H 0.000000000   -45.000000000   39.000000000
H 3.000000000   -48.000000000   39.000000000
H 3.000000000   -45.000000000   36.000000000
C 0.000000000   -42.000000000   0.000000000
H 3.000000000   -42.000000000   3.000000000
C 0.000000000   -42.000000000   6.000000000
H 3.000000000   -42.000000000   9.000000000
C 0.000000000   -42.000000000   12.000000000
H 3.000000000   -42.000000000   15.000000000
C 0.000000000   -42.000000000   18.000000000
H 3.000000000   -42.000000000   21.000000000
C 0.000000000   -42.000000000   24.000000000
H 3.000000000   -42.000000000   27.000000000
C 0.000000000   -42.000000000   30.000000000
H 3.000000000   -42.000000000   33.000000000
C 0.000000000   -42.000000000   36.000000000
H 3.000000000   -42.000000000   39.000000000
C 6.000000000   -60.000000000   0.000000000
H 6.000000000   -57.000000000   3.000000000
H 9.000000000   -60.000000000   3.000000000
H 9.000000000   -57.000000000   0.000000000
C 6.000000000   -60.000000000   6.000000000
H 6.000000000   -57.000000000   9.000000000
H 9.000000000   -60.000000000   9.000000000
H 9.000000000   -57.000000000   6.000000000
C 6.000000000   -60.000000000   12.000000000
H 6.000000000   -57.000000000   15.000000000
H 9.000000000   -60.000000000   15.000000000
H 9.000000000   -57.000000000   12.000000000
C 6.000000000   -60.000000000   18.000000000
H 6.000000000   -57.000000000   21.000000000
H 9.000000000   -60.000000000   21.000000000
H 9.000000000   -57.000000000   18.000000000
C 6.000000000   -60.000000000   24.000000000
H 6.000000000   -57.000000000   27.000000000
H 9.000000000   -60.000000000   27.000000000
H 9.000000000   -57.000000000   24.000000000
C 6.000000000   -60.000000000   30.000000000
H 6.000000000   -57.000000000   33.000000000
H 9.000000000   -60.000000000   33.000000000
H 9.000000000   -57.000000000   30.000000000
C 6.000000000   -60.000000000   36.000000000
H 6.000000000   -57.000000000   39.000000000
H 9.000000000   -60.000000000   39.000000000
H 9.000000000   -57.000000000   36.000000000
C 6.000000000   -54.000000000   0.000000000
H 6.000000000   -51.000000000   3.000000000
H 9.000000000   -54.000000000   3.000000000
H 9.000000000   -51.000000000   0.000000000
C 6.000000000   -54.000000000   6.000000000
H 6.000000000   -51.000000000   9.000000000
H 9.000000000   -54.000000000   9.000000000
H 9.000000000   -51.000000000   6.000000000
C 6.000000000   -54.000000000   12.000000000
H 6.000000000   -51.000000000   15.000000000
H 9.000000000   -54.000000000   15.000000000
H 9.000000000   -51.000000000   12.000000000
C 6.000000000   -54.000000000   18.000000000
H 6.000000000   -51.000000000   21.000000000
H 9.000000000   -54.000000000   21.000000000
H 9.000000000   -51.000000000   18.000000000
C 6.000000000   -54.000000000   24.000000000
H 6.000000000   -51.000000000   27.000000000
H 9.000000000   -54.000000000   27.000000000
H 9.000000000   -51.000000000   24.000000000
C 6.000000000   -54.000000000   30.000000000
H 6.000000000   -51.000000000   33.000000000
H 9.000000000   -54.000000000   33.000000000
H 9.000000000   -51.000000000   30.000000000
C 6.000000000   -54.000000000   36.000000000
H 6.000000000   -51.000000000   39.000000000
H 9.000000000   -54.000000000   39.000000000
H 9.000000000   -51.000000000   36.000000000
C 6.000000000   -48.000000000   0.000000000
H 6.000000000   -45.000000000   3.000000000
H 9.000000000   -48.000000000   3.000000000
H 9.000000000   -45.000000000   0.000000000
C 6.000000000   -48.000000000   6.000000000
H 6.000000000   -45.000000000   9.000000000
H 9.000000000   -48.000000000   9.000000000
H 9.000000000   -45.000000000   6.000000000
C 6.000000000   -48.000000000   12.000000000
H 6.000000000   -45.000000000   15.000000000
H 9.000000000   -48.000000000   15.000000000
H 9.000000000   -45.000000000   12.000000000
C 6.000000000   -48.000000000   18.000000000
H 6.000000000   -45.000000000   21.000000000
H 9.000000000   -48.000000000   21.000000000
H 9.000000000   -45.000000000   18.000000000
C 6.000000000   -48.000000000   24.000000000
H 6.000000000   -45.000000000   27.000000000
H 9.000000000   -48.000000000   27.000000000
H 9.000000000   -45.000000000   24.000000000
C 6.000000000   -48.000000000   30.000000000
H 6.000000000   -45.000000000   33.000000000
H 9.000000000   -48.000000000   33.000000000
H 9.000000000   -45.000000000   30.000000000
C 6.000000000   -48.000000000   36.000000000
H 6.000000000   -45.000000000   39.000000000
H 9.000000000   -48.000000000   39.000000000
H 9.000000000   -45.000000000   36.000000000
C 6.000000000   -42.000000000   0.000000000
H 9.000000000   -42.000000000   3.000000000
C 6.000000000   -42.000000000   6.000000000
H 9.000000000   -42.000000000   9.000000000
C 6.000000000   -42.000000000   12.000000000
H 9.000000000   -42.000000000   15.000000000
C 6.000000000   -42.000000000   18.000000000
H 9.000000000   -42.000000000   21.000000000
C 6.000000000   -42.000000000   24.000000000
H 9.000000000   -42.000000000   27.000000000
C 6.000000000   -42.000000000   30.000000000
H 9.000000000   -42.000000000   33.000000000
C 6.000000000   -42.000000000   36.000000000
H 9.000000000   -42.000000000   39.000000000
C 12.000000000   -60.000000000   0.000000000
H 12.000000000   -57.000000000   3.000000000
H 15.000000000   -60.000000000   3.000000000
H 15.000000000   -57.000000000   0.000000000
C 12.000000000   -60.000000000   6.000000000
H 12.000000000   -57.000000000   9.000000000
H 15.000000000   -60.000000000   9.000000000
H 15.000000000   -57.000000000   6.000000000
C 12.000000000   -60.000000000   12.000000000
H 12.000000000   -57.000000000   15.000000000
H 15.000000000   -60.000000000   15.000000000
H 15.000000000   -57.000000000   12.000000000
C 12.000000000   -60.000000000   18.000000000
H 12.000000000   -57.000000000   21.000000000
H 15.000000000   -60.000000000   21.000000000
H 15.000000000   -57.000000000   18.000000000
C 12.000000000   -60.000000000   24.000000000
H 12.000000000   -57.000000000   27.000000000
H 15.000000000   -60.000000000   27.000000000
H 15.000000000   -57.000000000   24.000000000
C 12.000000000   -60.000000000   30.000000000
H 12.000000000   -57.000000000   33.000000000
H 15.000000000   -60.000000000   33.000000000
H 15.000000000   -57.000000000   30.000000000
C 12.000000000   -60.000000000   36.000000000
H 12.000000000   -57.000000000   39.000000000
H 15.000000000   -60.000000000   39.000000000
H 15.000000000   -57.000000000   36.000000000
C 12.000000000   -54.000000000   0.000000000
H 12.000000000   -51.000000000   3.000000000
H 15.000000000   -54.000000000   3.000000000
H 15.000000000   -51.000000000   0.000000000
C 12.000000000   -54.000000000   6.000000000
H 12.000000000   -51.000000000   9.000000000
H 15.000000000   -54.000000000   9.000000000
H 15.000000000   -51.000000000   6.000000000
C 12.000000000   -54.000000000   12.000000000
H 12.000000000   -51.000000000   15.000000000
H 15.000000000   -54.000000000   15.000000000
H 15.000000000   -51.000000000   12.000000000
C 12.000000000   -54.000000000   18.000000000
H 12.000000000   -51.000000000   21.000000000
H 15.000000000   -54.000000000   21.000000000
H 15.000000000   -51.000000000   18.000000000
C 12.000000000   -54.000000000   24.000000000
H 12.000000000   -51.000000000   27.000000000
H 15.000000000   -54.000000000   27.000000000
H 15.000000000   -51.000000000   24.000000000
C 12.000000000   -54.000000000   30.000000000
H 12.000000000   -51.000000000   33.000000000
H 15.000000000   -54.000000000   33.000000000
H 15.000000000   -51.000000000   30.000000000
C 12.000000000   -54.000000000   36.000000000
H 12.000000000   -51.000000000   39.000000000
H 15.000000000   -54.000000000   39.000000000
H 15.000000000   -51.000000000   36.000000000
C 12.000000000   -48.000000000   0.000000000
H 12.000000000   -45.000000000   3.000000000
H 15.000000000   -48.000000000   3.000000000
H 15.000000000   -45.000000000   0.000000000
C 12.000000000   -48.000000000   6.000000000
H 12.000000000   -45.000000000   9.000000000
H 15.000000000   -48.000000000   9.000000000
H 15.000000000   -45.000000000   6.000000000
C 12.000000000   -48.000000000   12.000000000
H 12.000000000   -45.000000000   15.000000000
H 15.000000000   -48.000000000   15.000000000
H 15.000000000   -45.000000000   12.000000000
C 12.000000000   -48.000000000   18.000000000
H 12.000000000   -45.000000000   21.000000000
H 15.000000000   -48.000000000   21.000000000
H 15.000000000   -45.000000000   18.000000000
C 12.000000000   -48.000000000   24.000000000
H 12.000000000   -45.000000000   27.000000000
H 15.000000000   -48.000000000   27.000000000
H 15.000000000   -45.000000000   24.000000000
C 12.000000000   -48.000000000   30.000000000
H 12.000000000   -45.000000000   33.000000000
H 15.000000000   -48.000000000   33.000000000
H 15.000000000   -45.000000000   30.000000000
C 12.000000000   -48.000000000   36.000000000
H 12.000000000   -45.000000000   39.000000000
H 15.000000000   -48.000000000   39.000000000
H 15.000000000   -45.000000000   36.000000000
C 12.000000000   -42.000000000   0.000000000
H 15.000000000   -42.000000000   3.000000000
C 12.000000000   -42.000000000   6.000000000
H 15.000000000   -42.000000000   9.000000000
C 12.000000000   -42.000000000   12.000000000
H 15.000000000   -42.000000000   15.000000000
C 12.000000000   -42.000000000   18.000000000
H 15.000000000   -42.000000000   21.000000000
C 12.000000000   -42.000000000   24.000000000
H 15.000000000   -42.000000000   27.000000000
C 12.000000000   -42.000000000   30.000000000
H 15.000000000   -42.000000000   33.000000000
C 12.000000000   -42.000000000   36.000000000
H 15.000000000   -42.000000000   39.000000000
C 18.000000000   -60.000000000   0.000000000
H 18.000000000   -57.000000000   3.000000000
H 21.000000000   -60.000000000   3.000000000
H 21.000000000   -57.000000000   0.000000000
C 18.000000000   -60.000000000   6.000000000
H 18.000000000   -57.000000000   9.000000000
H 21.000000000   -60.000000000   9.000000000
H 21.000000000   -57.000000000   6.000000000
C 18.000000000   -60.000000000   12.000000000
H 18.000000000   -57.000000000   15.000000000
H 21.000000000   -60.000000000   15.000000000
H 21.000000000   -57.000000000   12.000000000
C 18.000000000   -60.000000000   18.000000000
H 18.000000000   -57.000000000   21.000000000
H 21.000000000   -60.000000000   21.000000000
H 21.000000000   -57.000000000   18.000000000
C 18.000000000   -60.000000000   24.000000000
H 18.000000000   -57.000000000   27.000000000
H 21.000000000   -60.000000000   27.000000000
H 21.000000000   -57.000000000   24.000000000
C 18.000000000   -60.000000000   30.000000000
H 18.000000000   -57.000000000   33.000000000
H 21.000000000   -60.000000000   33.000000000
H 21.000000000   -57.000000000   30.000000000
C 18.000000000   -60.000000000   36.000000000
H 18.000000000   -57.000000000   39.000000000
H 21.000000000   -60.000000000   39.000000000
H 21.000000000   -57.000000000   36.000000000
C 18.000000000   -54.000000000   0.000000000
H 18.000000000   -51.000000000   3.000000000
H 21.000000000   -54.000000000   3.000000000
H 21.000000000   -51.000000000   0.000000000
C 18.000000000   -54.000000000   6.000000000
H 18.000000000   -51.000000000   9.000000000
H 21.000000000   -54.000000000   9.000000000
H 21.000000000   -51.000000000   6.000000000
C 18.000000000   -54.000000000   12.000000000
H 18.000000000   -51.000000000   15.000000000
H 21.000000000   -54.000000000   15.000000000
H 21.000000000   -51.000000000   12.000000000
C 18.000000000   -54.000000000   18.000000000
H 18.000000000   -51.000000000   21.000000000
H 21.000000000   -54.000000000   21.000000000
H 21.000000000   -51.000000000   18.000000000
C 18.000000000   -54.000000000   24.000000000
H 18.000000000   -51.000000000   27.000000000
H 21.000000000   -54.000000000   27.000000000
H 21.000000000   -51.000000000   24.000000000
C 18.000000000   -54.000000000   30.000000000
H 18.000000000   -51.000000000   33.000000000
H 21.000000000   -54.000000000   33.000000000
H 21.000000000   -51.000000000   30.000000000
C 18.000000000   -54.000000000   36.000000000
H 18.000000000   -51.000000000   39.000000000
H 21.000000000   -54.000000000   39.000000000
H 21.000000000   -51.000000000   36.000000000
C 18.000000000   -48.000000000   0.000000000
H 18.000000000   -45.000000000   3.000000000
H 21.000000000   -48.000000000   3.000000000
H 21.000000000   -45.000000000   0.000000000
C 18.000000000   -48.000000000   6.000000000
H 18.000000000   -45.000000000   9.000000000
H 21.000000000   -48.000000000   9.000000000
H 21.000000000   -45.000000000   6.000000000
C 18.000000000   -48.000000000   12.000000000
H 18.000000000   -45.000000000   15.000000000
H 21.000000000   -48.000000000   15.000000000
H 21.000000000   -45.000000000   12.000000000
C 18.000000000   -48.000000000   18.000000000
H 18.000000000   -45.000000000   21.000000000
H 21.000000000   -48.000000000   21.000000000
H 21.000000000   -45.000000000   18.000000000
C 18.000000000   -48.000000000   24.000000000
H 18.000000000   -45.000000000   27.000000000
H 21.000000000   -48.000000000   27.000000000
H 21.000000000   -45.000000000   24.000000000
C 18.000000000   -48.000000000   30.000000000
H 18.000000000   -45.000000000   33.000000000
H 21.000000000   -48.000000000   33.000000000
H 21.000000000   -45.000000000   30.000000000
C 18.000000000   -48.000000000   36.000000000
H 18.000000000   -45.000000000   39.000000000
H 21.000000000   -48.000000000   39.000000000
H 21.000000000   -45.000000000   36.000000000
C 18.000000000   -42.000000000   0.000000000
H 21.000000000   -42.000000000   3.000000000
C 18.000000000   -42.000000000   6.000000000
H 21.000000000   -42.000000000   9.000000000
C 18.000000000   -42.000000000   12.000000000
H 21.000000000   -42.000000000   15.000000000
C 18.000000000   -42.000000000   18.000000000
H 21.000000000   -42.000000000   21.000000000
C 18.000000000   -42.000000000   24.000000000
H 21.000000000   -42.000000000   27.000000000
C 18.000000000   -42.000000000   30.000000000
H 21.000000000   -42.000000000   33.000000000
C 18.000000000   -42.000000000   36.000000000
H 21.000000000   -42.000000000   39.000000000
C 24.000000000   -60.000000000   0.000000000
H 24.000000000   -57.000000000   3.000000000
H 27.000000000   -60.000000000   3.000000000
H 27.000000000   -57.000000000   0.000000000
C 24.000000000   -60.000000000   6.000000000
H 24.000000000   -57.000000000   9.000000000
H 27.000000000   -60.000000000   9.000000000
H 27.000000000   -57.000000000   6.000000000
C 24.000000000   -60.000000000   12.000000000
H 24.000000000   -57.000000000   15.000000000
H 27.000000000   -60.000000000   15.000000000
H 27.000000000   -57.000000000   12.000000000
C 24.000000000   -60.000000000   18.000000000
H 24.000000000   -57.000000000   21.000000000
H 27.000000000   -60.000000000   21.000000000
H 27.000000000   -57.000000000   18.000000000
C 24.000000000   -60.000000000   24.000000000
H 24.000000000   -57.000000000   27.000000000
H 27.000000000   -60.000000000   27.000000000
H 27.000000000   -57.000000000   24.000000000
C 24.000000000   -60.000000000   30.000000000
H 24.000000000   -57.000000000   33.000000000
H 27.000000000   -60.000000000   33.000000000
H 27.000000000   -57.000000000   30.000000000
C 24.000000000   -60.000000000   36.000000000
H 24.000000000   -57.000000000   39.000000000
H 27.000000000   -60.000000000   39.000000000
H 27.000000000   -57.000000000   36.000000000
C 24.000000000   -54.000000000   0.000000000
H 24.000000000   -51.000000000   3.000000000
H 27.000000000   -54.000000000   3.000000000
H 27.000000000   -51.000000000   0.000000000
C 24.000000000   -54.000000000   6.000000000
H 24.000000000   -51.000000000   9.000000000
H 27.000000000   -54.000000000   9.000000000
H 27.000000000   -51.000000000   6.000000000
C 24.000000000   -54.000000000   12.000000000
H 24.000000000   -51.000000000   15.000000000
H 27.000000000   -54.000000000   15.000000000
H 27.000000000   -51.000000000   12.000000000
C 24.000000000   -54.000000000   18.000000000
H 24.000000000   -51.000000000   21.000000000
H 27.000000000   -54.000000000   21.000000000
H 27.000000000   -51.000000000   18.000000000
C 24.000000000   -54.000000000   24.000000000
H 24.000000000   -51.000000000   27.000000000
H 27.000000000   -54.000000000   27.000000000
H 27.000000000   -51.000000000   24.000000000
C 24.000000000   -54.000000000   30.000000000
H 24.000000000   -51.000000000   33.000000000
H 27.000000000   -54.000000000   33.000000000
H 27.000000000   -51.000000000   30.000000000
C 24.000000000   -54.000000000   36.000000000
H 24.000000000   -51.000000000   39.000000000
H 27.000000000   -54.000000000   39.000000000
H 27.000000000   -51.000000000   36.000000000
C 24.000000000   -48.000000000   0.000000000
H 24.000000000   -45.000000000   3.000000000
H 27.000000000   -48.000000000   3.000000000
H 27.000000000   -45.000000000   0.000000000
C 24.000000000   -48.000000000   6.000000000
H 24.000000000   -45.000000000   9.000000000
H 27.000000000   -48.000000000   9.000000000
H 27.000000000   -45.000000000   6.000000000
C 24.000000000   -48.000000000   12.000000000
H 24.000000000   -45.000000000   15.000000000
H 27.000000000   -48.000000000   15.000000000
H 27.000000000   -45.000000000   12.000000000
C 24.000000000   -48.000000000   18.000000000
H 24.000000000   -45.000000000   21.000000000
H 27.000000000   -48.000000000   21.000000000
H 27.000000000   -45.000000000   18.000000000
C 24.000000000   -48.000000000   24.000000000
H 24.000000000   -45.000000000   27.000000000
H 27.000000000   -48.000000000   27.000000000
H 27.000000000   -45.000000000   24.000000000
C 24.000000000   -48.000000000   30.000000000
H 24.000000000   -45.000000000   33.000000000
H 27.000000000   -48.000000000   33.000000000
H 27.000000000   -45.000000000   30.000000000
C 24.000000000   -48.000000000   36.000000000
H 24.000000000   -45.000000000   39.000000000
H 27.000000000   -48.000000000   39.000000000
H 27.000000000   -45.000000000   36.000000000
C 24.000000000   -42.000000000   0.000000000
H 27.000000000   -42.000000000   3.000000000
C 24.000000000   -42.000000000   6.000000000
H 27.000000000   -42.000000000   9.000000000
C 24.000000000   -42.000000000   12.000000000
H 27.000000000   -42.000000000   15.000000000
C 24.000000000   -42.000000000   18.000000000
H 27.000000000   -42.000000000   21.000000000
C 24.000000000   -42.000000000   24.000000000
H 27.000000000   -42.000000000   27.000000000
C 24.000000000   -42.000000000   30.000000000
H 27.000000000   -42.000000000   33.000000000
C 24.000000000   -42.000000000   36.000000000
H 27.000000000   -42.000000000   39.000000000
C 30.000000000   -60.000000000   0.000000000
H 30.000000000   -57.000000000   3.000000000
H 33.000000000   -60.000000000   3.000000000
H 33.000000000   -57.000000000   0.000000000
C 30.000000000   -60.000000000   6.000000000
H 30.000000000   -57.000000000   9.000000000
H 33.000000000   -60.000000000   9.000000000
H 33.000000000   -57.000000000   6.000000000
C 30.000000000   -60.000000000   12.000000000
H 30.000000000   -57.000000000   15.000000000
H 33.000000000   -60.000000000   15.000000000
H 33.000000000   -57.000000000   12.000000000
C 30.000000000   -60.000000000   18.000000000
H 30.000000000   -57.000000000   21.000000000
H 33.000000000   -60.000000000   21.000000000
H 33.000000000   -57.000000000   18.000000000
C 30.000000000   -60.000000000   24.000000000
H 30.000000000   -57.000000000   27.000000000
H 33.000000000   -60.000000000   27.000000000
H 33.000000000   -57.000000000   24.000000000
C 30.000000000   -60.000000000   30.000000000
H 30.000000000   -57.000000000   33.000000000
H 33.000000000   -60.000000000   33.000000000
H 33.000000000   -57.000000000   30.000000000
C 30.000000000   -60.000000000   36.000000000
H 30.000000000   -57.000000000   39.000000000
H 33.000000000   -60.000000000   39.000000000
H 33.000000000   -57.000000000   36.000000000
C 30.000000000   -54.000000000   0.000000000
H 30.000000000   -51.000000000   3.000000000
H 33.000000000   -54.000000000   3.000000000
H 33.000000000   -51.000000000   0.000000000
C 30.000000000   -54.000000000   6.000000000
H 30.000000000   -51.000000000   9.000000000
H 33.000000000   -54.000000000   9.000000000
H 33.000000000   -51.000000000   6.000000000
C 30.000000000   -54.000000000   12.000000000
H 30.000000000   -51.000000000   15.000000000
H 33.000000000   -54.000000000   15.000000000
H 33.000000000   -51.000000000   12.000000000
C 30.000000000   -54.000000000   18.000000000
H 30.000000000   -51.000000000   21.000000000
H 33.000000000   -54.000000000   21.000000000
H 33.000000000   -51.000000000   18.000000000
C 30.000000000   -54.000000000   24.000000000
H 30.000000000   -51.000000000   27.000000000
H 33.000000000   -54.000000000   27.000000000
H 33.000000000   -51.000000000   24.000000000
C 30.000000000   -54.000000000   30.000000000
H 30.000000000   -51.000000000   33.000000000
H 33.000000000   -54.000000000   33.000000000
H 33.000000000   -51.000000000   30.000000000
C 30.000000000   -54.000000000   36.000000000
H 30.000000000   -51.000000000   39.000000000
H 33.000000000   -54.000000000   39.000000000
H 33.000000000   -51.000000000   36.000000000
C 30.000000000   -48.000000000   0.000000000
H 30.000000000   -45.000000000   3.000000000
H 33.000000000   -48.000000000   3.000000000
H 33.000000000   -45.000000000   0.000000000
C 30.000000000   -48.000000000   6.000000000
H 30.000000000   -45.000000000   9.000000000
H 33.000000000   -48.000000000   9.000000000
H 33.000000000   -45.000000000   6.000000000
C 30.000000000   -48.000000000   12.000000000
H 30.000000000   -45.000000000   15.000000000
H 33.000000000   -48.000000000   15.000000000
H 33.000000000   -45.000000000   12.000000000
C 30.000000000   -48.000000000   18.000000000
H 30.000000000   -45.000000000   21.000000000
H 33.000000000   -48.000000000   21.000000000
H 33.000000000   -45.000000000   18.000000000
C 30.000000000   -48.000000000   24.000000000
H 30.000000000   -45.000000000   27.000000000
H 33.000000000   -48.000000000   27.000000000
H 33.000000000   -45.000000000   24.000000000
C 30.000000000   -48.000000000   30.000000000
H 30.000000000   -45.000000000   33.000000000
H 33.000000000   -48.000000000   33.000000000
H 33.000000000   -45.000000000   30.000000000
C 30.000000000   -48.000000000   36.000000000
H 30.000000000   -45.000000000   39.000000000
H 33.000000000   -48.000000000   39.000000000
H 33.000000000   -45.000000000   36.000000000
C 30.000000000   -42.000000000   0.000000000
H 30.000000000   -39.000000000   3.000000000
H 33.000000000   -42.000000000   3.000000000
H 33.000000000   -39.000000000   0.000000000
C 30.000000000   -42.000000000   6.000000000
H 30.000000000   -39.000000000   9.000000000
H 33.000000000   -42.000000000   9.000000000
H 33.000000000   -39.000000000   6.000000000
C 30.000000000   -42.000000000   12.000000000
H 30.000000000   -39.000000000   15.000000000
H 33.000000000   -42.000000000   15.000000000
H 33.000000000   -39.000000000   12.000000000
C 30.000000000   -42.000000000   18.000000000
H 30.000000000   -39.000000000   21.000000000
H 33.000000000   -42.000000000   21.000000000
H 33.000000000   -39.000000000   18.000000000
C 30.000000000   -42.000000000   24.000000000
H 30.000000000   -39.000000000   27.000000000
H 33.000000000   -42.000000000   27.000000000
H 33.000000000   -39.000000000   24.000000000
C 30.000000000   -42.000000000   30.000000000
H 30.000000000   -39.000000000   33.000000000
H 33.000000000   -42.000000000   33.000000000
H 33.000000000   -39.000000000   30.000000000
C 30.000000000   -42.000000000   36.000000000
H 30.000000000   -39.000000000   39.000000000
H 33.000000000   -42.000000000   39.000000000
H 33.000000000   -39.000000000   36.000000000
H 30.000000000   -33.000000000   3.000000000
H 33.000000000   -36.000000000   3.000000000
H 33.000000000   -33.000000000   0.000000000
H 30.000000000   -33.000000000   9.000000000
H 33.000000000   -36.000000000   9.000000000
H 33.000000000   -33.000000000   6.000000000
H 30.000000000   -33.000000000   15.000000000
H 33.000000000   -36.000000000   15.000000000
H 33.000000000   -33.000000000   12.000000000
H 30.000000000   -33.000000000   21.000000000
H 33.000000000   -36.000000000   21.000000000
H 33.000000000   -33.000000000   18.000000000
H 30.000000000   -33.000000000   27.000000000
H 33.000000000   -36.000000000   27.000000000
H 33.000000000   -33.000000000   24.000000000
H 30.000000000   -33.000000000   33.000000000
H 33.000000000   -36.000000000   33.000000000
H 33.000000000   -33.000000000   30.000000000
H 30.000000000   -33.000000000   39.000000000
H 33.000000000   -36.000000000   39.000000000
H 33.000000000   -33.000000000   36.000000000
H 30.000000000   -27.000000000   3.000000000
H 33.000000000   -30.000000000   3.000000000
H 33.000000000   -27.000000000   0.000000000
H 30.000000000   -27.000000000   9.000000000
H 33.000000000   -30.000000000   9.000000000
H 33.000000000   -27.000000000   6.000000000
H 30.000000000   -27.000000000   15.000000000
H 33.000000000   -30.000000000   15.000000000
H 33.000000000   -27.000000000   12.000000000
H 30.000000000   -27.000000000   21.000000000
H 33.000000000   -30.000000000   21.000000000
H 33.000000000   -27.000000000   18.000000000
H 30.000000000   -27.000000000   27.000000000
H 33.000000000   -30.000000000   27.000000000
H 33.000000000   -27.000000000   24.000000000
H 30.000000000   -27.000000000   33.000000000
H 33.000000000   -30.000000000   33.000000000
H 33.000000000   -27.000000000   30.000000000
H 30.000000000   -27.000000000   39.000000000
H 33.000000000   -30.000000000   39.000000000
H 33.000000000   -27.000000000   36.000000000
H 30.000000000   -21.000000000   3.000000000
H 33.000000000   -24.000000000   3.000000000
H 33.000000000   -21.000000000   0.000000000
H 30.000000000   -21.000000000   9.000000000
H 33.000000000   -24.000000000   9.000000000
H 33.000000000   -21.000000000   6.000000000
H 30.000000000   -21.000000000   15.000000000
H 33.000000000   -24.000000000   15.000000000
H 33.000000000   -21.000000000   12.000000000
H 30.000000000   -21.000000000   21.000000000
H 33.000000000   -24.000000000   21.000000000
H 33.000000000   -21.000000000   18.000000000
H 30.000000000   -21.000000000   27.000000000
H 33.000000000   -24.000000000   27.000000000
H 33.000000000   -21.000000000   24.000000000
H 30.000000000   -21.000000000   33.000000000
H 33.000000000   -24.000000000   33.000000000
H 33.000000000   -21.000000000   30.000000000
H 30.000000000   -21.000000000   39.000000000
H 33.000000000   -24.000000000   39.000000000
H 33.000000000   -21.000000000   36.000000000
H 30.000000000   -15.000000000   3.000000000
H 33.000000000   -18.000000000   3.000000000
H 33.000000000   -15.000000000   0.000000000
H 30.000000000   -15.000000000   9.000000000
H 33.000000000   -18.000000000   9.000000000
H 33.000000000   -15.000000000   6.000000000
H 30.000000000   -15.000000000   15.000000000
H 33.000000000   -18.000000000   15.000000000
H 33.000000000   -15.000000000   12.000000000
H 30.000000000   -15.000000000   21.000000000
H 33.000000000   -18.000000000   21.000000000
H 33.000000000   -15.000000000   18.000000000
H 30.000000000   -15.000000000   27.000000000
H 33.000000000   -18.000000000   27.000000000
H 33.000000000   -15.000000000   24.000000000
H 30.000000000   -15.000000000   33.000000000
H 33.000000000   -18.000000000   33.000000000
H 33.000000000   -15.000000000   30.000000000
H 30.000000000   -15.000000000   39.000000000
H 33.000000000   -18.000000000   39.000000000
H 33.000000000   -15.000000000   36.000000000
H 33.000000000   -12.000000000   3.000000000
H 33.000000000   -12.000000000   9.000000000
H 33.000000000   -12.000000000   15.000000000
H 33.000000000   -12.000000000   21.000000000
H 33.000000000   -12.000000000   27.000000000
H 33.000000000   -12.000000000   33.000000000
H 33.000000000   -12.000000000   39.000000000
C 36.000000000   -60.000000000   0.000000000
H 36.000000000   -57.000000000   3.000000000
H 39.000000000   -60.000000000   3.000000000
H 39.000000000   -57.000000000   0.000000000
C 36.000000000   -60.000000000   6.000000000
H 36.000000000   -57.000000000   9.000000000
H 39.000000000   -60.000000000   9.000000000
H 39.000000000   -57.000000000   6.000000000
C 36.000000000   -60.000000000   12.000000000
H 36.000000000   -57.000000000   15.000000000
H 39.000000000   -60.000000000   15.000000000
H 39.000000000   -57.000000000   12.000000000
C 36.000000000   -60.000000000   18.000000000
H 36.000000000   -57.000000000   21.000000000
H 39.000000000   -60.000000000   21.000000000
H 39.000000000   -57.000000000   18.000000000
C 36.000000000   -60.000000000   24.000000000
H 36.000000000   -57.000000000   27.000000000
H 39.000000000   -60.000000000   27.000000000
H 39.000000000   -57.000000000   24.000000000
C 36.000000000   -60.000000000   30.000000000
H 36.000000000   -57.000000000   33.000000000
H 39.000000000   -60.000000000   33.000000000
H 39.000000000   -57.000000000   30.000000000
C 36.000000000   -60.000000000   36.000000000
H 36.000000000   -57.000000000   39.000000000
H 39.000000000   -60.000000000   39.000000000
H 39.000000000   -57.000000000   36.000000000
C 36.000000000   -54.000000000   0.000000000
H 36.000000000   -51.000000000   3.000000000
H 39.000000000   -54.000000000   3.000000000
H 39.000000000   -51.000000000   0.000000000
C 36.000000000   -54.000000000   6.000000000
H 36.000000000   -51.000000000   9.000000000
H 39.000000000   -54.000000000   9.000000000
H 39.000000000   -51.000000000   6.000000000
C 36.000000000   -54.000000000   12.000000000
H 36.000000000   -51.000000000   15.000000000
H 39.000000000   -54.000000000   15.000000000
H 39.000000000   -51.000000000   12.000000000
C 36.000000000   -54.000000000   18.000000000
H 36.000000000   -51.000000000   21.000000000
H 39.000000000   -54.000000000   21.000000000
H 39.000000000   -51.000000000   18.000000000
C 36.000000000   -54.000000000   24.000000000
H 36.000000000   -51.000000000   27.000000000
H 39.000000000   -54.000000000   27.000000000
H 39.000000000   -51.000000000   24.000000000
C 36.000000000   -54.000000000   30.000000000
H 36.000000000   -51.000000000   33.000000000
H 39.000000000   -54.000000000   33.000000000
H 39.000000000   -51.000000000   30.000000000
C 36.000000000   -54.000000000   36.000000000
H 36.000000000   -51.000000000   39.000000000
H 39.000000000   -54.000000000   39.000000000
H 39.000000000   -51.000000000   36.000000000
C 36.000000000   -48.000000000   0.000000000
H 36.000000000   -45.000000000   3.000000000
H 39.000000000   -48.000000000   3.000000000
H 39.000000000   -45.000000000   0.000000000
C 36.000000000   -48.000000000   6.000000000
H 36.000000000   -45.000000000   9.000000000
H 39.000000000   -48.000000000   9.000000000
H 39.000000000   -45.000000000   6.000000000
C 36.000000000   -48.000000000   12.000000000
H 36.000000000   -45.000000000   15.000000000
H 39.000000000   -48.000000000   15.000000000
H 39.000000000   -45.000000000   12.000000000
C 36.000000000   -48.000000000   18.000000000
H 36.000000000   -45.000000000   21.000000000
H 39.000000000   -48.000000000   21.000000000
H 39.000000000   -45.000000000   18.000000000
C 36.000000000   -48.000000000   24.000000000
H 36.000000000   -45.000000000   27.000000000
H 39.000000000   -48.000000000   27.000000000
H 39.000000000   -45.000000000   24.000000000
C 36.000000000   -48.000000000   30.000000000
H 36.000000000   -45.000000000   33.000000000
H 39.000000000   -48.000000000   33.000000000
H 39.000000000   -45.000000000   30.000000000
C 36.000000000   -48.000000000   36.000000000
H 36.000000000   -45.000000000   39.000000000
H 39.000000000   -48.000000000   39.000000000
H 39.000000000   -45.000000000   36.000000000
C 36.000000000   -42.000000000   0.000000000
H 36.000000000   -39.000000000   3.000000000
H 39.000000000   -42.000000000   3.000000000
H 39.000000000   -39.000000000   0.000000000
C 36.000000000   -42.000000000   6.000000000
H 36.000000000   -39.000000000   9.000000000
H 39.000000000   -42.000000000   9.000000000
H 39.000000000   -39.000000000   6.000000000
C 36.000000000   -42.000000000   12.000000000
H 36.000000000   -39.000000000   15.000000000
H 39.000000000   -42.000000000   15.000000000
H 39.000000000   -39.000000000   12.000000000
C 36.000000000   -42.000000000   18.000000000
H 36.000000000   -39.000000000   21.000000000
H 39.000000000   -42.000000000   21.000000000
H 39.000000000   -39.000000000   18.000000000
C 36.000000000   -42.000000000   24.000000000
H 36.000000000   -39.000000000   27.000000000
H 39.000000000   -42.000000000   27.000000000
H 39.000000000   -39.000000000   24.000000000
C 36.000000000   -42.000000000   30.000000000
H 36.000000000   -39.000000000   33.000000000
H 39.000000000   -42.000000000   33.000000000
H 39.000000000   -39.000000000   30.000000000
C 36.000000000   -42.000000000   36.000000000
H 36.000000000   -39.000000000   39.000000000
H 39.000000000   -42.000000000   39.000000000
H 39.000000000   -39.000000000   36.000000000
C 36.000000000   -36.000000000   0.000000000
H 36.000000000   -33.000000000   3.000000000
H 39.000000000   -36.000000000   3.000000000
H 39.000000000   -33.000000000   0.000000000
C 36.000000000   -36.000000000   6.000000000
H 36.000000000   -33.000000000   9.000000000
H 39.000000000   -36.000000000   9.000000000
H 39.000000000   -33.000000000   6.000000000
C 36.000000000   -36.000000000   12.000000000
H 36.000000000   -33.000000000   15.000000000
H 39.000000000   -36.000000000   15.000000000
H 39.000000000   -33.000000000   12.000000000
C 36.000000000   -36.000000000   18.000000000
H 36.000000000   -33.000000000   21.000000000
H 39.000000000   -36.000000000   21.000000000
H 39.000000000   -33.000000000   18.000000000
C 36.000000000   -36.000000000   24.000000000
H 36.000000000   -33.000000000   27.000000000
H 39.000000000   -36.000000000   27.000000000
H 39.000000000   -33.000000000   24.000000000
C 36.000000000   -36.000000000   30.000000000
H 36.000000000   -33.000000000   33.000000000
H 39.000000000   -36.000000000   33.000000000
H 39.000000000   -33.000000000   30.000000000
C 36.000000000   -36.000000000   36.000000000
H 36.000000000   -33.000000000   39.000000000
H 39.000000000   -36.000000000   39.000000000
H 39.000000000   -33.000000000   36.000000000
C 36.000000000   -30.000000000   0.000000000
H 36.000000000   -27.000000000   3.000000000
H 39.000000000   -30.000000000   3.000000000
H 39.000000000   -27.000000000   0.000000000
C 36.000000000   -30.000000000   6.000000000
H 36.000000000   -27.000000000   9.000000000
H 39.000000000   -30.000000000   9.000000000
H 39.000000000   -27.000000000   6.000000000
C 36.000000000   -30.000000000   12.000000000
H 36.000000000   -27.000000000   15.000000000
H 39.000000000   -30.000000000   15.000000000
H 39.000000000   -27.000000000   12.000000000
C 36.000000000   -30.000000000   18.000000000
H 36.000000000   -27.000000000   21.000000000
H 39.000000000   -30.000000000   21.000000000
H 39.000000000   -27.000000000   18.000000000
C 36.000000000   -30.000000000   24.000000000
H 36.000000000   -27.000000000   27.000000000
H 39.000000000   -30.000000000   27.000000000
H 39.000000000   -27.000000000   24.000000000
C 36.000000000   -30.000000000   30.000000000
H 36.000000000   -27.000000000   33.000000000
H 39.000000000   -30.000000000   33.000000000
H 39.000000000   -27.000000000   30.000000000
C 36.000000000   -30.000000000   36.000000000
H 36.000000000   -27.000000000   39.000000000
H 39.000000000   -30.000000000   39.000000000
H 39.000000000   -27.000000000   36.000000000
C 36.000000000   -24.000000000   0.000000000
H 36.000000000   -21.000000000   3.000000000
H 39.000000000   -24.000000000   3.000000000
H 39.000000000   -21.000000000   0.000000000
C 36.000000000   -24.000000000   6.000000000
H 36.000000000   -21.000000000   9.000000000
H 39.000000000   -24.000000000   9.000000000
H 39.000000000   -21.000000000   6.000000000
C 36.000000000   -24.000000000   12.000000000
H 36.000000000   -21.000000000   15.000000000
H 39.000000000   -24.000000000   15.000000000
H 39.000000000   -21.000000000   12.000000000
C 36.000000000   -24.000000000   18.000000000
H 36.000000000   -21.000000000   21.000000000
H 39.000000000   -24.000000000   21.000000000
H 39.000000000   -21.000000000   18.000000000
C 36.000000000   -24.000000000   24.000000000
H 36.000000000   -21.000000000   27.000000000
H 39.000000000   -24.000000000   27.000000000
H 39.000000000   -21.000000000   24.000000000
C 36.000000000   -24.000000000   30.000000000
H 36.000000000   -21.000000000   33.000000000
H 39.000000000   -24.000000000   33.000000000
H 39.000000000   -21.000000000   30.000000000
C 36.000000000   -24.000000000   36.000000000
H 36.000000000   -21.000000000   39.000000000
H 39.000000000   -24.000000000   39.000000000
H 39.000000000   -21.000000000   36.000000000
C 36.000000000   -18.000000000   0.000000000
H 36.000000000   -15.000000000   3.000000000
H 39.000000000   -18.000000000   3.000000000
H 39.000000000   -15.000000000   0.000000000
C 36.000000000   -18.000000000   6.000000000
H 36.000000000   -15.000000000   9.000000000
H 39.000000000   -18.000000000   9.000000000
H 39.000000000   -15.000000000   6.000000000
C 36.000000000   -18.000000000   12.000000000
H 36.000000000   -15.000000000   15.000000000
H 39.000000000   -18.000000000   15.000000000
H 39.000000000   -15.000000000   12.000000000
C 36.000000000   -18.000000000   18.000000000
H 36.000000000   -15.000000000   21.000000000
H 39.000000000   -18.000000000   21.000000000
H 39.000000000   -15.000000000   18.000000000
C 36.000000000   -18.000000000   24.000000000
H 36.000000000   -15.000000000   27.000000000
H 39.000000000   -18.000000000   27.000000000
H 39.000000000   -15.000000000   24.000000000
C 36.000000000   -18.000000000   30.000000000
H 36.000000000   -15.000000000   33.000000000
H 39.000000000   -18.000000000   33.000000000
H 39.000000000   -15.000000000   30.000000000
C 36.000000000   -18.000000000   36.000000000
H 36.000000000   -15.000000000   39.000000000
H 39.000000000   -18.000000000   39.000000000
H 39.000000000   -15.000000000   36.000000000
C 36.000000000   -12.000000000   0.000000000
H 39.000000000   -12.000000000   3.000000000
C 36.000000000   -12.000000000   6.000000000
H 39.000000000   -12.000000000   9.000000000
C 36.000000000   -12.000000000   12.000000000
H 39.000000000   -12.000000000   15.000000000
C 36.000000000   -12.000000000   18.000000000
H 39.000000000   -12.000000000   21.000000000
C 36.000000000   -12.000000000   24.000000000
H 39.000000000   -12.000000000   27.000000000
C 36.000000000   -12.000000000   30.000000000
H 39.000000000   -12.000000000   33.000000000
C 36.000000000   -12.000000000   36.000000000
H 39.000000000   -12.000000000   39.000000000
